LAMMPS (17 Feb 2022)
variable layer index 21
variable type string fa_int_half_qeq
variable rand equal round(random(0,1e7,452345))
variable temp index 50000 45000 40500 36450 32805 29524 26571 23913 21521 19368 17431 15687 14118 12706 11435 10291 9261 8334 7500 6750 6075 5467 4920 4428 3985 3586 3227 2904 2613 2351 2115 1903 1712 1540 1386 1247 1122 1009 908 817 735 661 594 534 480 432 388 349 314 282 253 227 204 183 164 147 132 118 106 95 85 76 68 61 54 48 43 38 34 30 27 24 21 18 16 14 12 10 9 8 7 6 5 4 3 2 1

variable nsteps equal 972  # (nfe*nfe)/4

include settings.lmp
units              real
atom_style         full
timestep	   0.5
boundary	   p p f

pair_style         lj/cut/coul/long 12.0
bond_style         harmonic
angle_style        harmonic
dihedral_style     fourier
improper_style     cvff
kspace_style       pppm 1.0e-6
kspace_modify      slab 3.0

pair_modify        mix arithmetic
special_bonds      amber
neighbor           2.0 bin
neigh_modify       every 1 delay 0 check yes

read_data 001-dbt_3x3_${layer}L_${type}.data
read_data 001-dbt_3x3_21L_${type}.data
read_data 001-dbt_3x3_21L_fa_int_half_qeq.data
Reading data file ...
  orthogonal box = (0 0 -64.778423) to (25.44 25.44 32.908)
  1 by 1 by 4 MPI processor grid
  reading atoms ...
  4311 atoms
  reading velocities ...
  4311 velocities
  scanning bonds ...
  3 = max bonds/atom
  scanning angles ...
  3 = max angles/atom
  scanning impropers ...
  1 = max impropers/atom
  reading bonds ...
  36 bonds
  reading angles ...
  54 angles
  reading impropers ...
  9 impropers
Finding 1-2 1-3 1-4 neighbors ...
  special bond factors lj:    0        0        0.5     
  special bond factors coul:  0        0        0.8333333333333334
     3 = max # of 1-2 neighbors
     2 = max # of 1-3 neighbors
     2 = max # of 1-4 neighbors
     3 = max # of special neighbors
  special bonds CPU = 0.000 seconds
  read_data CPU = 0.011 seconds

include ff_formic_acid_fe304.param
#####################-----formic_acid-----######################################

mass  1   12.011   # Sp2 C carbonyl group
mass  2    1.008   # H bonded to non-sp3 carbon with 2 electrwd. group
mass  3   15.9994  # Oxygen with one connected atom
mass  4   15.9994  # Oxygen in hydroxyl group
mass  5    1.008   # Hydroxyl group

pair_coeff  1  1   0.0988  3.31521230994  # c
pair_coeff  2  2   0.0161  2.44729877873  # h5
pair_coeff  3  3   0.1463  3.04812087425  # o
pair_coeff  4  4   0.0930  3.24287133403  # oh
pair_coeff  5  5   0.0047  0.537924646013 # ho

bond_coeff  1  361.80  1.105  # c-h5
bond_coeff  2  652.57  1.218  # c=o
bond_coeff  3  383.13  1.351  # c-oh
bond_coeff  4  563.51  0.973  # o-h

angle_coeff  1   51.617  106.550  # c-oh-ho
angle_coeff  2   65.930  123.650  # h5-c=o
angle_coeff  3   65.262  109.490  # h5-c-oh
angle_coeff  4  115.745  122.100  # o=c-oh

dihedral_coeff  1  1  2.3  2  180.0               # h5-c-oh-ho
dihedral_coeff  2  2  2.3  2  180.0  1.9  1  0.0  # o=c-oh-ho

                              #  h5
                              #  |
improper_coeff  1  10.5 -1 2  #  c
                              # / \
                              # o  oh

#####################-----formate-----###########################################

angle_coeff  5   118.817 130.250  # o-c-o

                              #  h5
                              #  |
improper_coeff  2  10.5 -1 2  #  c
                              # / \
                              # o  o

#####################-----magnetite-----#########################################

mass  6   55.845   # Iron(II)
mass  7   55.845   # Iron(III)
mass  8   15.9994  # Bridging oxygen
mass  9   15.9994  # Hydroxyl oxygen
mass  10   1.008   # Hydroxyl hydrogen

pair_coeff  6  6   9.0298e-07  4.90620  # fe2
pair_coeff  7  7   9.0298e-07  4.90620  # fe3
pair_coeff  8  8   0.1554      3.16554  # ob
pair_coeff  9  9   0.1554      3.16554  # oh
pair_coeff  10 10  0.0         0.0      # ho

bond_coeff  5  554.1349  1.0   # oh-ho
bond_coeff  6    0.0     2.08  # fe-oh (dummy bond)

angle_coeff  6   30.0  109.470  # fe-oh-ho

##################################################################################

group Felayer molecule 101 100 102
324 atoms in group Felayer
group Fe type 6 7
1818 atoms in group Fe
group swpFe intersect Fe Felayer
108 atoms in group swpFe

label minimize_temp

  variable ftemp equal v_temp

  # Electrostatic relaxation
  fix swp swpFe atom/swap 1 1 ${rand} ${temp} ke no types 6 7
  fix swp swpFe atom/swap 1 1 855824 ${temp} ke no types 6 7
  fix swp swpFe atom/swap 1 1 855824 50000 ke no types 6 7
  thermo 100
  thermo_style custom step v_ftemp pe f_swp[1] f_swp[2]
  run ${nsteps}
  run 972
WARNING: No fixes with time integration, atoms won't move (../verlet.cpp:60)
PPPM initialization ...
  using 12-bit tables for long-range coulomb (../kspace.cpp:340)
  G vector (1/distance) = 0.29499995
  grid = 45 45 250
  stencil order = 5
  estimated absolute RMS force accuracy = 0.00038527262
  estimated relative force accuracy = 1.160237e-06
  using double precision KISS FFT
  3d grid and FFT values/proc = 554040 378675
  generated 45 of 45 mixed pair_coeff terms from arithmetic mixing rule
Neighbor list info ...
  update every 1 steps, delay 0 steps, check yes
  max neighbors/atom: 2000, page size: 100000
  master list distance cutoff = 14
  ghost atom cutoff = 14
  binsize = 7, bins = 4 4 14
  1 neighbor lists, perpetual/occasional/extra = 1 0 0
  (1) pair lj/cut/coul/long, perpetual
      attributes: half, newton on
      pair build: half/bin/newton
      stencil: half/bin/3d
      bin: standard
Per MPI rank memory allocation (min/avg/max) = 24.35 | 35.11 | 63.71 Mbytes
Step v_ftemp PotEng f_swp[1] f_swp[2] 
       0        50000   -783964.83            0            0 
     100        50000   -784854.34          100           71 
     200        50000   -784595.48          200          142 
     300        50000   -784092.28          300          203 
     400        50000   -784439.45          400          269 
     500        50000   -784141.72          500          339 
     600        50000   -784483.97          600          396 
     700        50000   -784017.18          700          465 
     800        50000   -784415.67          800          536 
     900        50000   -785268.99          900          606 
     972        50000   -784792.39          972          652 
Loop time of 261.576 on 4 procs for 972 steps with 4311 atoms

Performance: 0.161 ns/day, 149.506 hours/ns, 3.716 timesteps/s
93.6% CPU use with 4 MPI tasks x no OpenMP threads

MPI task timing breakdown:
Section |  min time  |  avg time  |  max time  |%varavg| %total
---------------------------------------------------------------
Pair    | 2.7207     | 7.1333     | 10.6       | 124.0 |  2.73
Bond    | 0.0014941  | 0.0028977  | 0.0068933  |   4.3 |  0.00
Kspace  | 62.836     | 66.301     | 70.721     |  40.7 | 25.35
Neigh   | 16.535     | 16.566     | 16.603     |   0.7 |  6.33
Comm    | 0.61092    | 0.67207    | 0.73511    |   6.1 |  0.26
Output  | 0.00019444 | 0.00048401 | 0.0011477  |   0.0 |  0.00
Modify  | 170.85     | 170.88     | 170.9      |   0.2 | 65.33
Other   |            | 0.02441    |            |       |  0.01

Nlocal:        1077.75 ave        1494 max         657 min
Histogram: 1 1 0 0 0 0 0 0 1 1
Nghost:        8908.75 ave       11946 max        5684 min
Histogram: 1 1 0 0 0 0 0 0 0 2
Neighs:         536036 ave      798165 max      198523 min
Histogram: 1 0 0 1 0 0 0 0 0 2

Total # of neighbors = 2144145
Ave neighs/atom = 497.36604
Ave special neighs/atom = 0.029227557
Neighbor list builds = 1944
Dangerous builds = 0

  unfix swp
  thermo_style custom step temp pe

next temp
jump SELF minimize_temp

  variable ftemp equal v_temp

  # Electrostatic relaxation
  fix swp swpFe atom/swap 1 1 ${rand} ${temp} ke no types 6 7
  fix swp swpFe atom/swap 1 1 710414 ${temp} ke no types 6 7
  fix swp swpFe atom/swap 1 1 710414 45000 ke no types 6 7
  thermo 100
  thermo_style custom step v_ftemp pe f_swp[1] f_swp[2]
  run ${nsteps}
  run 972
WARNING: No fixes with time integration, atoms won't move (../verlet.cpp:60)
PPPM initialization ...
  using 12-bit tables for long-range coulomb (../kspace.cpp:340)
  G vector (1/distance) = 0.29499995
  grid = 45 45 250
  stencil order = 5
  estimated absolute RMS force accuracy = 0.00038527262
  estimated relative force accuracy = 1.160237e-06
  using double precision KISS FFT
  3d grid and FFT values/proc = 554040 378675
  generated 45 of 45 mixed pair_coeff terms from arithmetic mixing rule
Per MPI rank memory allocation (min/avg/max) = 24.35 | 35.11 | 63.71 Mbytes
Step v_ftemp PotEng f_swp[1] f_swp[2] 
     972        45000   -784792.39            0            0 
    1000        45000   -784855.62           28           16 
    1100        45000   -784868.59          128           78 
    1200        45000   -784649.34          228          140 
    1300        45000   -784454.28          328          208 
    1400        45000   -785080.74          428          260 
    1500        45000      -785150          528          324 
    1600        45000   -785089.76          628          393 
    1700        45000   -784352.45          728          459 
    1800        45000   -784406.41          828          533 
    1900        45000   -784888.39          928          598 
    1944        45000   -785248.82          972          626 
Loop time of 282.975 on 4 procs for 972 steps with 4311 atoms

Performance: 0.148 ns/day, 161.737 hours/ns, 3.435 timesteps/s
93.2% CPU use with 4 MPI tasks x no OpenMP threads

MPI task timing breakdown:
Section |  min time  |  avg time  |  max time  |%varavg| %total
---------------------------------------------------------------
Pair    | 2.8506     | 7.4536     | 11.086     | 126.5 |  2.63
Bond    | 0.0013094  | 0.0071953  | 0.023943   |  11.4 |  0.00
Kspace  | 67.506     | 71.14      | 75.732     |  40.9 | 25.14
Neigh   | 17.189     | 17.219     | 17.26      |   0.7 |  6.08
Comm    | 0.48946    | 0.55552    | 0.5985     |   6.2 |  0.20
Output  | 0.00027115 | 0.00070168 | 0.0017344  |   0.0 |  0.00
Modify  | 186.55     | 186.57     | 186.6      |   0.1 | 65.93
Other   |            | 0.02667    |            |       |  0.01

Nlocal:        1077.75 ave        1494 max         657 min
Histogram: 1 1 0 0 0 0 0 0 1 1
Nghost:        8908.75 ave       11946 max        5684 min
Histogram: 1 1 0 0 0 0 0 0 0 2
Neighs:         536036 ave      798165 max      198523 min
Histogram: 1 0 0 1 0 0 0 0 0 2

Total # of neighbors = 2144145
Ave neighs/atom = 497.36604
Ave special neighs/atom = 0.029227557
Neighbor list builds = 1944
Dangerous builds = 0

  unfix swp
  thermo_style custom step temp pe

next temp
jump SELF minimize_temp

  variable ftemp equal v_temp

  # Electrostatic relaxation
  fix swp swpFe atom/swap 1 1 ${rand} ${temp} ke no types 6 7
  fix swp swpFe atom/swap 1 1 755762 ${temp} ke no types 6 7
  fix swp swpFe atom/swap 1 1 755762 40500 ke no types 6 7
  thermo 100
  thermo_style custom step v_ftemp pe f_swp[1] f_swp[2]
  run ${nsteps}
  run 972
WARNING: No fixes with time integration, atoms won't move (../verlet.cpp:60)
PPPM initialization ...
  using 12-bit tables for long-range coulomb (../kspace.cpp:340)
  G vector (1/distance) = 0.29499995
  grid = 45 45 250
  stencil order = 5
  estimated absolute RMS force accuracy = 0.00038527262
  estimated relative force accuracy = 1.160237e-06
  using double precision KISS FFT
  3d grid and FFT values/proc = 554040 378675
  generated 45 of 45 mixed pair_coeff terms from arithmetic mixing rule
Per MPI rank memory allocation (min/avg/max) = 24.35 | 35.11 | 63.71 Mbytes
Step v_ftemp PotEng f_swp[1] f_swp[2] 
    1944        40500   -785248.82            0            0 
    2000        40500   -785014.82           56           33 
    2100        40500   -784820.21          156           92 
    2200        40500   -785108.83          256          151 
    2300        40500   -785003.67          356          215 
    2400        40500    -785017.8          456          273 
    2500        40500    -784788.3          556          324 
    2600        40500   -785304.29          656          385 
    2700        40500   -785124.73          756          443 
    2800        40500   -785112.46          856          503 
    2900        40500   -784662.51          956          561 
    2916        40500    -784619.4          972          571 
Loop time of 281.785 on 4 procs for 972 steps with 4311 atoms

Performance: 0.149 ns/day, 161.057 hours/ns, 3.449 timesteps/s
93.1% CPU use with 4 MPI tasks x no OpenMP threads

MPI task timing breakdown:
Section |  min time  |  avg time  |  max time  |%varavg| %total
---------------------------------------------------------------
Pair    | 2.8557     | 7.5656     | 11.334     | 129.2 |  2.68
Bond    | 0.0017156  | 0.0034518  | 0.008265   |   4.7 |  0.00
Kspace  | 67.23      | 71.017     | 75.727     |  42.3 | 25.20
Neigh   | 17.371     | 17.399     | 17.426     |   0.5 |  6.17
Comm    | 0.60397    | 0.64799    | 0.68712    |   4.4 |  0.23
Output  | 0.00022062 | 0.00056135 | 0.0014042  |   0.0 |  0.00
Modify  | 185.11     | 185.13     | 185.16     |   0.1 | 65.70
Other   |            | 0.02593    |            |       |  0.01

Nlocal:        1077.75 ave        1494 max         657 min
Histogram: 1 1 0 0 0 0 0 0 1 1
Nghost:        8908.75 ave       11946 max        5684 min
Histogram: 1 1 0 0 0 0 0 0 0 2
Neighs:         536036 ave      798165 max      198523 min
Histogram: 1 0 0 1 0 0 0 0 0 2

Total # of neighbors = 2144145
Ave neighs/atom = 497.36604
Ave special neighs/atom = 0.029227557
Neighbor list builds = 1944
Dangerous builds = 0

  unfix swp
  thermo_style custom step temp pe

next temp
jump SELF minimize_temp

  variable ftemp equal v_temp

  # Electrostatic relaxation
  fix swp swpFe atom/swap 1 1 ${rand} ${temp} ke no types 6 7
  fix swp swpFe atom/swap 1 1 4574249 ${temp} ke no types 6 7
  fix swp swpFe atom/swap 1 1 4574249 36450 ke no types 6 7
  thermo 100
  thermo_style custom step v_ftemp pe f_swp[1] f_swp[2]
  run ${nsteps}
  run 972
WARNING: No fixes with time integration, atoms won't move (../verlet.cpp:60)
PPPM initialization ...
  using 12-bit tables for long-range coulomb (../kspace.cpp:340)
  G vector (1/distance) = 0.29499995
  grid = 45 45 250
  stencil order = 5
  estimated absolute RMS force accuracy = 0.00038527262
  estimated relative force accuracy = 1.160237e-06
  using double precision KISS FFT
  3d grid and FFT values/proc = 554040 378675
  generated 45 of 45 mixed pair_coeff terms from arithmetic mixing rule
Per MPI rank memory allocation (min/avg/max) = 24.35 | 35.11 | 63.71 Mbytes
Step v_ftemp PotEng f_swp[1] f_swp[2] 
    2916        36450    -784619.4            0            0 
    3000        36450   -785229.16           84           46 
    3100        36450   -784890.49          184           98 
    3200        36450   -785079.08          284          148 
    3300        36450   -785294.36          384          204 
    3400        36450   -784798.76          484          260 
    3500        36450   -785270.22          584          309 
    3600        36450   -784672.37          684          368 
    3700        36450   -785048.32          784          426 
    3800        36450   -784816.71          884          488 
    3888        36450   -784860.08          972          536 
Loop time of 340.789 on 4 procs for 972 steps with 4311 atoms

Performance: 0.123 ns/day, 194.781 hours/ns, 2.852 timesteps/s
85.5% CPU use with 4 MPI tasks x no OpenMP threads

MPI task timing breakdown:
Section |  min time  |  avg time  |  max time  |%varavg| %total
---------------------------------------------------------------
Pair    | 3.0372     | 8.2087     | 12.233     | 135.8 |  2.41
Bond    | 0.0017886  | 0.0036147  | 0.0084825  |   4.7 |  0.00
Kspace  | 79.499     | 83.57      | 88.672     |  42.7 | 24.52
Neigh   | 21.711     | 21.756     | 21.779     |   0.6 |  6.38
Comm    | 1.6902     | 1.9186     | 2.0944     |  12.3 |  0.56
Output  | 0.044093   | 0.047362   | 0.049091   |   0.9 |  0.01
Modify  | 225.13     | 225.26     | 225.41     |   0.9 | 66.10
Other   |            | 0.02855    |            |       |  0.01

Nlocal:        1077.75 ave        1494 max         657 min
Histogram: 1 1 0 0 0 0 0 0 1 1
Nghost:        8908.75 ave       11946 max        5684 min
Histogram: 1 1 0 0 0 0 0 0 0 2
Neighs:         536036 ave      798165 max      198523 min
Histogram: 1 0 0 1 0 0 0 0 0 2

Total # of neighbors = 2144145
Ave neighs/atom = 497.36604
Ave special neighs/atom = 0.029227557
Neighbor list builds = 1944
Dangerous builds = 0

  unfix swp
  thermo_style custom step temp pe

next temp
jump SELF minimize_temp

  variable ftemp equal v_temp

  # Electrostatic relaxation
  fix swp swpFe atom/swap 1 1 ${rand} ${temp} ke no types 6 7
  fix swp swpFe atom/swap 1 1 5979850 ${temp} ke no types 6 7
  fix swp swpFe atom/swap 1 1 5979850 32805 ke no types 6 7
  thermo 100
  thermo_style custom step v_ftemp pe f_swp[1] f_swp[2]
  run ${nsteps}
  run 972
WARNING: No fixes with time integration, atoms won't move (../verlet.cpp:60)
PPPM initialization ...
  using 12-bit tables for long-range coulomb (../kspace.cpp:340)
  G vector (1/distance) = 0.29499995
  grid = 45 45 250
  stencil order = 5
  estimated absolute RMS force accuracy = 0.00038527262
  estimated relative force accuracy = 1.160237e-06
  using double precision KISS FFT
  3d grid and FFT values/proc = 554040 378675
  generated 45 of 45 mixed pair_coeff terms from arithmetic mixing rule
Per MPI rank memory allocation (min/avg/max) = 24.35 | 35.11 | 63.71 Mbytes
Step v_ftemp PotEng f_swp[1] f_swp[2] 
    3888        32805   -784860.08            0            0 
    3900        32805   -784917.09           12            6 
    4000        32805    -785131.1          112           48 
    4100        32805   -785101.91          212          104 
    4200        32805   -785112.55          312          159 
    4300        32805   -784994.64          412          211 
    4400        32805   -785090.91          512          264 
    4500        32805   -784846.94          612          309 
    4600        32805   -784928.94          712          375 
    4700        32805   -784774.26          812          433 
    4800        32805   -784562.24          912          484 
    4860        32805   -784480.68          972          518 
Loop time of 290.251 on 4 procs for 972 steps with 4311 atoms

Performance: 0.145 ns/day, 165.896 hours/ns, 3.349 timesteps/s
91.6% CPU use with 4 MPI tasks x no OpenMP threads

MPI task timing breakdown:
Section |  min time  |  avg time  |  max time  |%varavg| %total
---------------------------------------------------------------
Pair    | 2.9303     | 7.7164     | 11.425     | 129.0 |  2.66
Bond    | 0.001896   | 0.0037114  | 0.0087007  |   4.7 |  0.00
Kspace  | 69.465     | 73.173     | 77.948     |  41.9 | 25.21
Neigh   | 17.862     | 17.897     | 17.937     |   0.8 |  6.17
Comm    | 0.54386    | 0.59515    | 0.63547    |   4.8 |  0.21
Output  | 0.00026351 | 0.00064835 | 0.0015955  |   0.0 |  0.00
Modify  | 190.82     | 190.84     | 190.85     |   0.1 | 65.75
Other   |            | 0.02794    |            |       |  0.01

Nlocal:        1077.75 ave        1494 max         657 min
Histogram: 1 1 0 0 0 0 0 0 1 1
Nghost:        8908.75 ave       11946 max        5684 min
Histogram: 1 1 0 0 0 0 0 0 0 2
Neighs:         536036 ave      798165 max      198523 min
Histogram: 1 0 0 1 0 0 0 0 0 2

Total # of neighbors = 2144145
Ave neighs/atom = 497.36604
Ave special neighs/atom = 0.029227557
Neighbor list builds = 1944
Dangerous builds = 0

  unfix swp
  thermo_style custom step temp pe

next temp
jump SELF minimize_temp

  variable ftemp equal v_temp

  # Electrostatic relaxation
  fix swp swpFe atom/swap 1 1 ${rand} ${temp} ke no types 6 7
  fix swp swpFe atom/swap 1 1 2707118 ${temp} ke no types 6 7
  fix swp swpFe atom/swap 1 1 2707118 29524 ke no types 6 7
  thermo 100
  thermo_style custom step v_ftemp pe f_swp[1] f_swp[2]
  run ${nsteps}
  run 972
WARNING: No fixes with time integration, atoms won't move (../verlet.cpp:60)
PPPM initialization ...
  using 12-bit tables for long-range coulomb (../kspace.cpp:340)
  G vector (1/distance) = 0.29499995
  grid = 45 45 250
  stencil order = 5
  estimated absolute RMS force accuracy = 0.00038527262
  estimated relative force accuracy = 1.160237e-06
  using double precision KISS FFT
  3d grid and FFT values/proc = 554040 378675
  generated 45 of 45 mixed pair_coeff terms from arithmetic mixing rule
Per MPI rank memory allocation (min/avg/max) = 24.35 | 35.11 | 63.71 Mbytes
Step v_ftemp PotEng f_swp[1] f_swp[2] 
    4860        29524   -784480.68            0            0 
    4900        29524   -785019.76           40           15 
    5000        29524   -785225.49          140           54 
    5100        29524   -785036.17          240          107 
    5200        29524   -784759.22          340          156 
    5300        29524   -785273.33          440          197 
    5400        29524   -785126.14          540          244 
    5500        29524   -785019.44          640          294 
    5600        29524   -784720.12          740          348 
    5700        29524   -785346.96          840          393 
    5800        29524   -785279.78          940          446 
    5832        29524   -785179.51          972          463 
Loop time of 287.939 on 4 procs for 972 steps with 4311 atoms

Performance: 0.146 ns/day, 164.574 hours/ns, 3.376 timesteps/s
91.1% CPU use with 4 MPI tasks x no OpenMP threads

MPI task timing breakdown:
Section |  min time  |  avg time  |  max time  |%varavg| %total
---------------------------------------------------------------
Pair    | 2.9565     | 7.7986     | 11.632     | 129.8 |  2.71
Bond    | 0.0018658  | 0.0037899  | 0.008896   |   4.8 |  0.00
Kspace  | 67.326     | 71.185     | 76.043     |  43.1 | 24.72
Neigh   | 18.338     | 18.373     | 18.399     |   0.6 |  6.38
Comm    | 0.57843    | 0.64208    | 0.70559    |   7.5 |  0.22
Output  | 0.00023224 | 0.00045534 | 0.00091065 |   0.0 |  0.00
Modify  | 189.87     | 189.91     | 189.95     |   0.2 | 65.95
Other   |            | 0.02909    |            |       |  0.01

Nlocal:        1077.75 ave        1494 max         657 min
Histogram: 1 1 0 0 0 0 0 0 1 1
Nghost:        8908.75 ave       11946 max        5684 min
Histogram: 1 1 0 0 0 0 0 0 0 2
Neighs:         536036 ave      798165 max      198523 min
Histogram: 1 0 0 1 0 0 0 0 0 2

Total # of neighbors = 2144145
Ave neighs/atom = 497.36604
Ave special neighs/atom = 0.029227557
Neighbor list builds = 1944
Dangerous builds = 0

  unfix swp
  thermo_style custom step temp pe

next temp
jump SELF minimize_temp

  variable ftemp equal v_temp

  # Electrostatic relaxation
  fix swp swpFe atom/swap 1 1 ${rand} ${temp} ke no types 6 7
  fix swp swpFe atom/swap 1 1 1165944 ${temp} ke no types 6 7
  fix swp swpFe atom/swap 1 1 1165944 26571 ke no types 6 7
  thermo 100
  thermo_style custom step v_ftemp pe f_swp[1] f_swp[2]
  run ${nsteps}
  run 972
WARNING: No fixes with time integration, atoms won't move (../verlet.cpp:60)
PPPM initialization ...
  using 12-bit tables for long-range coulomb (../kspace.cpp:340)
  G vector (1/distance) = 0.29499995
  grid = 45 45 250
  stencil order = 5
  estimated absolute RMS force accuracy = 0.00038527262
  estimated relative force accuracy = 1.160237e-06
  using double precision KISS FFT
  3d grid and FFT values/proc = 554040 378675
  generated 45 of 45 mixed pair_coeff terms from arithmetic mixing rule
Per MPI rank memory allocation (min/avg/max) = 24.35 | 35.11 | 63.71 Mbytes
Step v_ftemp PotEng f_swp[1] f_swp[2] 
    5832        26571   -785179.51            0            0 
    5900        26571    -785431.2           68           29 
    6000        26571   -784739.27          168           84 
    6100        26571   -785433.89          268          125 
    6200        26571   -785066.77          368          174 
    6300        26571   -784992.57          468          233 
    6400        26571   -785085.63          568          283 
    6500        26571   -785340.86          668          325 
    6600        26571   -784843.05          768          379 
    6700        26571   -785202.64          868          423 
    6800        26571    -785332.6          968          471 
    6804        26571   -785348.02          972          474 
Loop time of 289.519 on 4 procs for 972 steps with 4311 atoms

Performance: 0.145 ns/day, 165.477 hours/ns, 3.357 timesteps/s
90.4% CPU use with 4 MPI tasks x no OpenMP threads

MPI task timing breakdown:
Section |  min time  |  avg time  |  max time  |%varavg| %total
---------------------------------------------------------------
Pair    | 3.0616     | 7.98       | 11.699     | 128.0 |  2.76
Bond    | 0.0019643  | 0.0042076  | 0.0098971  |   5.1 |  0.00
Kspace  | 68.021     | 71.735     | 76.651     |  42.7 | 24.78
Neigh   | 18.364     | 18.408     | 18.472     |   0.9 |  6.36
Comm    | 0.59184    | 0.67753    | 0.75909    |   7.2 |  0.23
Output  | 0.00024341 | 0.00049699 | 0.0010568  |   0.0 |  0.00
Modify  | 190.65     | 190.68     | 190.7      |   0.1 | 65.86
Other   |            | 0.03167    |            |       |  0.01

Nlocal:        1077.75 ave        1494 max         657 min
Histogram: 1 1 0 0 0 0 0 0 1 1
Nghost:        8908.75 ave       11946 max        5684 min
Histogram: 1 1 0 0 0 0 0 0 0 2
Neighs:         536036 ave      798165 max      198523 min
Histogram: 1 0 0 1 0 0 0 0 0 2

Total # of neighbors = 2144145
Ave neighs/atom = 497.36604
Ave special neighs/atom = 0.029227557
Neighbor list builds = 1944
Dangerous builds = 0

  unfix swp
  thermo_style custom step temp pe

next temp
jump SELF minimize_temp

  variable ftemp equal v_temp

  # Electrostatic relaxation
  fix swp swpFe atom/swap 1 1 ${rand} ${temp} ke no types 6 7
  fix swp swpFe atom/swap 1 1 3631288 ${temp} ke no types 6 7
  fix swp swpFe atom/swap 1 1 3631288 23913 ke no types 6 7
  thermo 100
  thermo_style custom step v_ftemp pe f_swp[1] f_swp[2]
  run ${nsteps}
  run 972
WARNING: No fixes with time integration, atoms won't move (../verlet.cpp:60)
PPPM initialization ...
  using 12-bit tables for long-range coulomb (../kspace.cpp:340)
  G vector (1/distance) = 0.29499995
  grid = 45 45 250
  stencil order = 5
  estimated absolute RMS force accuracy = 0.00038527262
  estimated relative force accuracy = 1.160237e-06
  using double precision KISS FFT
  3d grid and FFT values/proc = 554040 378675
  generated 45 of 45 mixed pair_coeff terms from arithmetic mixing rule
Per MPI rank memory allocation (min/avg/max) = 24.35 | 35.11 | 63.71 Mbytes
Step v_ftemp PotEng f_swp[1] f_swp[2] 
    6804        23913   -785348.02            0            0 
    6900        23913    -785303.4           96           43 
    7000        23913   -784958.57          196           88 
    7100        23913   -785260.03          296          143 
    7200        23913   -785193.95          396          189 
    7300        23913   -785559.77          496          235 
    7400        23913   -785212.41          596          278 
    7500        23913   -785437.74          696          319 
    7600        23913   -785128.31          796          355 
    7700        23913    -785491.6          896          404 
    7776        23913   -785507.59          972          432 
Loop time of 316.85 on 4 procs for 972 steps with 4311 atoms

Performance: 0.133 ns/day, 181.099 hours/ns, 3.068 timesteps/s
87.2% CPU use with 4 MPI tasks x no OpenMP threads

MPI task timing breakdown:
Section |  min time  |  avg time  |  max time  |%varavg| %total
---------------------------------------------------------------
Pair    | 3.034      | 8.1481     | 12.035     | 132.5 |  2.57
Bond    | 0.0019108  | 0.0076565  | 0.017271   |   7.2 |  0.00
Kspace  | 74.547     | 78.4       | 83.533     |  42.7 | 24.74
Neigh   | 20.168     | 20.215     | 20.301     |   1.2 |  6.38
Comm    | 1.1006     | 1.2399     | 1.3921     |   9.3 |  0.39
Output  | 0.00051779 | 0.00066289 | 0.00083584 |   0.0 |  0.00
Modify  | 208.71     | 208.81     | 208.88     |   0.4 | 65.90
Other   |            | 0.03271    |            |       |  0.01

Nlocal:        1077.75 ave        1494 max         657 min
Histogram: 1 1 0 0 0 0 0 0 1 1
Nghost:        8908.75 ave       11946 max        5684 min
Histogram: 1 1 0 0 0 0 0 0 0 2
Neighs:         536036 ave      798165 max      198523 min
Histogram: 1 0 0 1 0 0 0 0 0 2

Total # of neighbors = 2144145
Ave neighs/atom = 497.36604
Ave special neighs/atom = 0.029227557
Neighbor list builds = 1944
Dangerous builds = 0

  unfix swp
  thermo_style custom step temp pe

next temp
jump SELF minimize_temp

  variable ftemp equal v_temp

  # Electrostatic relaxation
  fix swp swpFe atom/swap 1 1 ${rand} ${temp} ke no types 6 7
  fix swp swpFe atom/swap 1 1 7952271 ${temp} ke no types 6 7
  fix swp swpFe atom/swap 1 1 7952271 21521 ke no types 6 7
  thermo 100
  thermo_style custom step v_ftemp pe f_swp[1] f_swp[2]
  run ${nsteps}
  run 972
WARNING: No fixes with time integration, atoms won't move (../verlet.cpp:60)
PPPM initialization ...
  using 12-bit tables for long-range coulomb (../kspace.cpp:340)
  G vector (1/distance) = 0.29499995
  grid = 45 45 250
  stencil order = 5
  estimated absolute RMS force accuracy = 0.00038527262
  estimated relative force accuracy = 1.160237e-06
  using double precision KISS FFT
  3d grid and FFT values/proc = 554040 378675
  generated 45 of 45 mixed pair_coeff terms from arithmetic mixing rule
Per MPI rank memory allocation (min/avg/max) = 24.35 | 35.11 | 63.71 Mbytes
Step v_ftemp PotEng f_swp[1] f_swp[2] 
    7776        21521   -785507.59            0            0 
    7800        21521    -785477.5           24           15 
    7900        21521      -785512          124           43 
    8000        21521   -785606.48          224           75 
    8100        21521   -785518.86          324          110 
    8200        21521   -785304.32          424          151 
    8300        21521   -785500.88          524          193 
    8400        21521   -785316.04          624          233 
    8500        21521   -784986.19          724          267 
    8600        21521   -785266.91          824          305 
    8700        21521   -785402.58          924          337 
    8748        21521   -785356.55          972          358 
Loop time of 289.599 on 4 procs for 972 steps with 4311 atoms

Performance: 0.145 ns/day, 165.523 hours/ns, 3.356 timesteps/s
90.9% CPU use with 4 MPI tasks x no OpenMP threads

MPI task timing breakdown:
Section |  min time  |  avg time  |  max time  |%varavg| %total
---------------------------------------------------------------
Pair    | 3.0232     | 7.9712     | 11.763     | 131.9 |  2.75
Bond    | 0.0019334  | 0.0040756  | 0.009675   |   5.1 |  0.00
Kspace  | 67.548     | 71.356     | 76.303     |  44.2 | 24.64
Neigh   | 18.486     | 18.528     | 18.572     |   0.7 |  6.40
Comm    | 0.56439    | 0.63796    | 0.68112    |   5.7 |  0.22
Output  | 0.00028456 | 0.00052417 | 0.0010659  |   0.0 |  0.00
Modify  | 191.05     | 191.07     | 191.09     |   0.1 | 65.98
Other   |            | 0.03114    |            |       |  0.01

Nlocal:        1077.75 ave        1494 max         657 min
Histogram: 1 1 0 0 0 0 0 0 1 1
Nghost:        8908.75 ave       11946 max        5684 min
Histogram: 1 1 0 0 0 0 0 0 0 2
Neighs:         536036 ave      798165 max      198523 min
Histogram: 1 0 0 1 0 0 0 0 0 2

Total # of neighbors = 2144145
Ave neighs/atom = 497.36604
Ave special neighs/atom = 0.029227557
Neighbor list builds = 1944
Dangerous builds = 0

  unfix swp
  thermo_style custom step temp pe

next temp
jump SELF minimize_temp

  variable ftemp equal v_temp

  # Electrostatic relaxation
  fix swp swpFe atom/swap 1 1 ${rand} ${temp} ke no types 6 7
  fix swp swpFe atom/swap 1 1 185888 ${temp} ke no types 6 7
  fix swp swpFe atom/swap 1 1 185888 19368 ke no types 6 7
  thermo 100
  thermo_style custom step v_ftemp pe f_swp[1] f_swp[2]
  run ${nsteps}
  run 972
WARNING: No fixes with time integration, atoms won't move (../verlet.cpp:60)
PPPM initialization ...
  using 12-bit tables for long-range coulomb (../kspace.cpp:340)
  G vector (1/distance) = 0.29499995
  grid = 45 45 250
  stencil order = 5
  estimated absolute RMS force accuracy = 0.00038527262
  estimated relative force accuracy = 1.160237e-06
  using double precision KISS FFT
  3d grid and FFT values/proc = 554040 378675
  generated 45 of 45 mixed pair_coeff terms from arithmetic mixing rule
Per MPI rank memory allocation (min/avg/max) = 24.35 | 35.11 | 63.71 Mbytes
Step v_ftemp PotEng f_swp[1] f_swp[2] 
    8748        19368   -785356.55            0            0 
    8800        19368   -785229.45           52           21 
    8900        19368    -784944.3          152           59 
    9000        19368   -785199.63          252           91 
    9100        19368   -785706.29          352          130 
    9200        19368   -785415.32          452          168 
    9300        19368   -785656.37          552          209 
    9400        19368   -785542.66          652          243 
    9500        19368   -785493.02          752          286 
    9600        19368   -785277.62          852          321 
    9700        19368   -785427.64          952          353 
    9720        19368   -785511.43          972          362 
Loop time of 286.404 on 4 procs for 972 steps with 4311 atoms

Performance: 0.147 ns/day, 163.697 hours/ns, 3.394 timesteps/s
91.7% CPU use with 4 MPI tasks x no OpenMP threads

MPI task timing breakdown:
Section |  min time  |  avg time  |  max time  |%varavg| %total
---------------------------------------------------------------
Pair    | 2.9585     | 7.8678     | 11.725     | 131.6 |  2.75
Bond    | 0.001825   | 0.0040124  | 0.0098192  |   5.3 |  0.00
Kspace  | 66.874     | 70.752     | 75.66      |  43.9 | 24.70
Neigh   | 18.546     | 18.571     | 18.604     |   0.6 |  6.48
Comm    | 0.72659    | 0.76571    | 0.81569    |   4.4 |  0.27
Output  | 0.00028317 | 0.00058863 | 0.0012841  |   0.0 |  0.00
Modify  | 188.39     | 188.41     | 188.43     |   0.1 | 65.79
Other   |            | 0.03069    |            |       |  0.01

Nlocal:        1077.75 ave        1494 max         657 min
Histogram: 1 1 0 0 0 0 0 0 1 1
Nghost:        8908.75 ave       11946 max        5684 min
Histogram: 1 1 0 0 0 0 0 0 0 2
Neighs:         536036 ave      798165 max      198523 min
Histogram: 1 0 0 1 0 0 0 0 0 2

Total # of neighbors = 2144145
Ave neighs/atom = 497.36604
Ave special neighs/atom = 0.029227557
Neighbor list builds = 1944
Dangerous builds = 0

  unfix swp
  thermo_style custom step temp pe

next temp
jump SELF minimize_temp

  variable ftemp equal v_temp

  # Electrostatic relaxation
  fix swp swpFe atom/swap 1 1 ${rand} ${temp} ke no types 6 7
  fix swp swpFe atom/swap 1 1 7935996 ${temp} ke no types 6 7
  fix swp swpFe atom/swap 1 1 7935996 17431 ke no types 6 7
  thermo 100
  thermo_style custom step v_ftemp pe f_swp[1] f_swp[2]
  run ${nsteps}
  run 972
WARNING: No fixes with time integration, atoms won't move (../verlet.cpp:60)
PPPM initialization ...
  using 12-bit tables for long-range coulomb (../kspace.cpp:340)
  G vector (1/distance) = 0.29499995
  grid = 45 45 250
  stencil order = 5
  estimated absolute RMS force accuracy = 0.00038527262
  estimated relative force accuracy = 1.160237e-06
  using double precision KISS FFT
  3d grid and FFT values/proc = 554040 378675
  generated 45 of 45 mixed pair_coeff terms from arithmetic mixing rule
Per MPI rank memory allocation (min/avg/max) = 24.35 | 35.11 | 63.71 Mbytes
Step v_ftemp PotEng f_swp[1] f_swp[2] 
    9720        17431   -785511.43            0            0 
    9800        17431   -785457.57           80           27 
    9900        17431   -785252.89          180           63 
   10000        17431   -785434.91          280           97 
   10100        17431   -785605.72          380          129 
   10200        17431   -785669.13          480          159 
   10300        17431   -785676.89          580          195 
   10400        17431   -785590.19          680          226 
   10500        17431   -785341.16          780          254 
   10600        17431   -785648.75          880          289 
   10692        17431   -785612.28          972          312 
Loop time of 290.339 on 4 procs for 972 steps with 4311 atoms

Performance: 0.145 ns/day, 165.946 hours/ns, 3.348 timesteps/s
91.8% CPU use with 4 MPI tasks x no OpenMP threads

MPI task timing breakdown:
Section |  min time  |  avg time  |  max time  |%varavg| %total
---------------------------------------------------------------
Pair    | 2.8837     | 7.6537     | 11.25      | 129.3 |  2.64
Bond    | 0.0015099  | 0.0033094  | 0.0079219  |   4.6 |  0.00
Kspace  | 69.357     | 72.922     | 77.716     |  42.1 | 25.12
Neigh   | 17.988     | 18.044     | 18.103     |   1.0 |  6.21
Comm    | 0.68576    | 0.74489    | 0.81784    |   6.7 |  0.26
Output  | 0.00019439 | 0.00040471 | 0.00087814 |   0.0 |  0.00
Modify  | 190.91     | 190.94     | 191        |   0.2 | 65.77
Other   |            | 0.02693    |            |       |  0.01

Nlocal:        1077.75 ave        1494 max         657 min
Histogram: 1 1 0 0 0 0 0 0 1 1
Nghost:        8908.75 ave       11946 max        5684 min
Histogram: 1 1 0 0 0 0 0 0 0 2
Neighs:         536036 ave      798165 max      198523 min
Histogram: 1 0 0 1 0 0 0 0 0 2

Total # of neighbors = 2144145
Ave neighs/atom = 497.36604
Ave special neighs/atom = 0.029227557
Neighbor list builds = 1944
Dangerous builds = 0

  unfix swp
  thermo_style custom step temp pe

next temp
jump SELF minimize_temp

  variable ftemp equal v_temp

  # Electrostatic relaxation
  fix swp swpFe atom/swap 1 1 ${rand} ${temp} ke no types 6 7
  fix swp swpFe atom/swap 1 1 473855 ${temp} ke no types 6 7
  fix swp swpFe atom/swap 1 1 473855 15687 ke no types 6 7
  thermo 100
  thermo_style custom step v_ftemp pe f_swp[1] f_swp[2]
  run ${nsteps}
  run 972
WARNING: No fixes with time integration, atoms won't move (../verlet.cpp:60)
PPPM initialization ...
  using 12-bit tables for long-range coulomb (../kspace.cpp:340)
  G vector (1/distance) = 0.29499995
  grid = 45 45 250
  stencil order = 5
  estimated absolute RMS force accuracy = 0.00038527262
  estimated relative force accuracy = 1.160237e-06
  using double precision KISS FFT
  3d grid and FFT values/proc = 554040 378675
  generated 45 of 45 mixed pair_coeff terms from arithmetic mixing rule
Per MPI rank memory allocation (min/avg/max) = 24.35 | 35.11 | 63.71 Mbytes
Step v_ftemp PotEng f_swp[1] f_swp[2] 
   10692        15687   -785612.28            0            0 
   10700        15687   -785576.49            8            4 
   10800        15687   -785782.34          108           41 
   10900        15687   -785829.42          208           68 
   11000        15687   -785499.79          308           96 
   11100        15687    -785606.4          408          129 
   11200        15687    -785807.7          508          169 
   11300        15687   -785566.67          608          192 
   11400        15687   -785705.09          708          215 
   11500        15687   -785469.25          808          248 
   11600        15687   -785578.36          908          277 
   11664        15687   -785784.16          972          295 
Loop time of 282.411 on 4 procs for 972 steps with 4311 atoms

Performance: 0.149 ns/day, 161.415 hours/ns, 3.442 timesteps/s
93.2% CPU use with 4 MPI tasks x no OpenMP threads

MPI task timing breakdown:
Section |  min time  |  avg time  |  max time  |%varavg| %total
---------------------------------------------------------------
Pair    | 2.8541     | 7.506      | 11.231     | 128.3 |  2.66
Bond    | 0.0016448  | 0.0032152  | 0.0076114  |   4.5 |  0.00
Kspace  | 68.816     | 72.553     | 77.216     |  41.3 | 25.69
Neigh   | 16.991     | 17.024     | 17.072     |   0.8 |  6.03
Comm    | 0.47407    | 0.5297     | 0.57234    |   5.6 |  0.19
Output  | 0.00022356 | 0.00053203 | 0.0013112  |   0.0 |  0.00
Modify  | 184.75     | 184.77     | 184.79     |   0.1 | 65.43
Other   |            | 0.02479    |            |       |  0.01

Nlocal:        1077.75 ave        1494 max         657 min
Histogram: 1 1 0 0 0 0 0 0 1 1
Nghost:        8908.75 ave       11946 max        5684 min
Histogram: 1 1 0 0 0 0 0 0 0 2
Neighs:         536036 ave      798165 max      198523 min
Histogram: 1 0 0 1 0 0 0 0 0 2

Total # of neighbors = 2144145
Ave neighs/atom = 497.36604
Ave special neighs/atom = 0.029227557
Neighbor list builds = 1944
Dangerous builds = 0

  unfix swp
  thermo_style custom step temp pe

next temp
jump SELF minimize_temp

  variable ftemp equal v_temp

  # Electrostatic relaxation
  fix swp swpFe atom/swap 1 1 ${rand} ${temp} ke no types 6 7
  fix swp swpFe atom/swap 1 1 7716369 ${temp} ke no types 6 7
  fix swp swpFe atom/swap 1 1 7716369 14118 ke no types 6 7
  thermo 100
  thermo_style custom step v_ftemp pe f_swp[1] f_swp[2]
  run ${nsteps}
  run 972
WARNING: No fixes with time integration, atoms won't move (../verlet.cpp:60)
PPPM initialization ...
  using 12-bit tables for long-range coulomb (../kspace.cpp:340)
  G vector (1/distance) = 0.29499995
  grid = 45 45 250
  stencil order = 5
  estimated absolute RMS force accuracy = 0.00038527262
  estimated relative force accuracy = 1.160237e-06
  using double precision KISS FFT
  3d grid and FFT values/proc = 554040 378675
  generated 45 of 45 mixed pair_coeff terms from arithmetic mixing rule
Per MPI rank memory allocation (min/avg/max) = 24.35 | 35.11 | 63.71 Mbytes
Step v_ftemp PotEng f_swp[1] f_swp[2] 
   11664        14118   -785784.16            0            0 
   11700        14118   -785608.43           36           10 
   11800        14118   -785706.55          136           39 
   11900        14118   -785710.16          236           71 
   12000        14118   -785850.66          336          101 
   12100        14118   -785479.84          436          135 
   12200        14118   -785555.22          536          165 
   12300        14118   -785675.98          636          201 
   12400        14118    -785499.6          736          226 
   12500        14118   -785635.38          836          255 
   12600        14118   -785653.15          936          277 
   12636        14118    -785740.4          972          285 
Loop time of 273.964 on 4 procs for 972 steps with 4311 atoms

Performance: 0.153 ns/day, 156.587 hours/ns, 3.548 timesteps/s
94.5% CPU use with 4 MPI tasks x no OpenMP threads

MPI task timing breakdown:
Section |  min time  |  avg time  |  max time  |%varavg| %total
---------------------------------------------------------------
Pair    | 2.7927     | 7.4226     | 11.04      | 128.5 |  2.71
Bond    | 0.0015287  | 0.0033253  | 0.0078214  |   4.5 |  0.00
Kspace  | 66.806     | 70.427     | 75.058     |  41.7 | 25.71
Neigh   | 16.448     | 16.475     | 16.513     |   0.6 |  6.01
Comm    | 0.41348    | 0.46088    | 0.49188    |   4.8 |  0.17
Output  | 0.00019883 | 0.00048847 | 0.0011737  |   0.0 |  0.00
Modify  | 179.14     | 179.15     | 179.16     |   0.1 | 65.39
Other   |            | 0.02197    |            |       |  0.01

Nlocal:        1077.75 ave        1494 max         657 min
Histogram: 1 1 0 0 0 0 0 0 1 1
Nghost:        8908.75 ave       11946 max        5684 min
Histogram: 1 1 0 0 0 0 0 0 0 2
Neighs:         536036 ave      798165 max      198523 min
Histogram: 1 0 0 1 0 0 0 0 0 2

Total # of neighbors = 2144145
Ave neighs/atom = 497.36604
Ave special neighs/atom = 0.029227557
Neighbor list builds = 1944
Dangerous builds = 0

  unfix swp
  thermo_style custom step temp pe

next temp
jump SELF minimize_temp

  variable ftemp equal v_temp

  # Electrostatic relaxation
  fix swp swpFe atom/swap 1 1 ${rand} ${temp} ke no types 6 7
  fix swp swpFe atom/swap 1 1 8487327 ${temp} ke no types 6 7
  fix swp swpFe atom/swap 1 1 8487327 12706 ke no types 6 7
  thermo 100
  thermo_style custom step v_ftemp pe f_swp[1] f_swp[2]
  run ${nsteps}
  run 972
WARNING: No fixes with time integration, atoms won't move (../verlet.cpp:60)
PPPM initialization ...
  using 12-bit tables for long-range coulomb (../kspace.cpp:340)
  G vector (1/distance) = 0.29499995
  grid = 45 45 250
  stencil order = 5
  estimated absolute RMS force accuracy = 0.00038527262
  estimated relative force accuracy = 1.160237e-06
  using double precision KISS FFT
  3d grid and FFT values/proc = 554040 378675
  generated 45 of 45 mixed pair_coeff terms from arithmetic mixing rule
Per MPI rank memory allocation (min/avg/max) = 24.35 | 35.11 | 63.71 Mbytes
Step v_ftemp PotEng f_swp[1] f_swp[2] 
   12636        12706    -785740.4            0            0 
   12700        12706   -785804.07           64           19 
   12800        12706   -785754.08          164           40 
   12900        12706   -785715.75          264           66 
   13000        12706   -785757.99          364           86 
   13100        12706   -785843.33          464          114 
   13200        12706   -785754.14          564          145 
   13300        12706   -785816.47          664          167 
   13400        12706   -785727.72          764          183 
   13500        12706    -785453.9          864          209 
   13600        12706   -785835.67          964          237 
   13608        12706   -785863.32          972          239 
Loop time of 281.943 on 4 procs for 972 steps with 4311 atoms

Performance: 0.149 ns/day, 161.147 hours/ns, 3.448 timesteps/s
92.2% CPU use with 4 MPI tasks x no OpenMP threads

MPI task timing breakdown:
Section |  min time  |  avg time  |  max time  |%varavg| %total
---------------------------------------------------------------
Pair    | 2.9851     | 7.8464     | 11.748     | 130.6 |  2.78
Bond    | 0.0020851  | 0.0041028  | 0.0095582  |   4.9 |  0.00
Kspace  | 66.697     | 70.606     | 75.469     |  43.6 | 25.04
Neigh   | 17.557     | 17.59      | 17.62      |   0.6 |  6.24
Comm    | 0.49812    | 0.53667    | 0.58596    |   4.8 |  0.19
Output  | 0.00022435 | 0.00054889 | 0.0013272  |   0.0 |  0.00
Modify  | 185.31     | 185.33     | 185.34     |   0.1 | 65.73
Other   |            | 0.03083    |            |       |  0.01

Nlocal:        1077.75 ave        1494 max         657 min
Histogram: 1 1 0 0 0 0 0 0 1 1
Nghost:        8908.75 ave       11946 max        5684 min
Histogram: 1 1 0 0 0 0 0 0 0 2
Neighs:         536036 ave      798165 max      198523 min
Histogram: 1 0 0 1 0 0 0 0 0 2

Total # of neighbors = 2144145
Ave neighs/atom = 497.36604
Ave special neighs/atom = 0.029227557
Neighbor list builds = 1944
Dangerous builds = 0

  unfix swp
  thermo_style custom step temp pe

next temp
jump SELF minimize_temp

  variable ftemp equal v_temp

  # Electrostatic relaxation
  fix swp swpFe atom/swap 1 1 ${rand} ${temp} ke no types 6 7
  fix swp swpFe atom/swap 1 1 8505477 ${temp} ke no types 6 7
  fix swp swpFe atom/swap 1 1 8505477 11435 ke no types 6 7
  thermo 100
  thermo_style custom step v_ftemp pe f_swp[1] f_swp[2]
  run ${nsteps}
  run 972
WARNING: No fixes with time integration, atoms won't move (../verlet.cpp:60)
PPPM initialization ...
  using 12-bit tables for long-range coulomb (../kspace.cpp:340)
  G vector (1/distance) = 0.29499995
  grid = 45 45 250
  stencil order = 5
  estimated absolute RMS force accuracy = 0.00038527262
  estimated relative force accuracy = 1.160237e-06
  using double precision KISS FFT
  3d grid and FFT values/proc = 554040 378675
  generated 45 of 45 mixed pair_coeff terms from arithmetic mixing rule
Per MPI rank memory allocation (min/avg/max) = 24.35 | 35.11 | 63.71 Mbytes
Step v_ftemp PotEng f_swp[1] f_swp[2] 
   13608        11435   -785863.32            0            0 
   13700        11435   -785803.94           92           22 
   13800        11435   -785838.39          192           43 
   13900        11435   -785676.29          292           60 
   14000        11435   -785710.83          392           85 
   14100        11435   -785873.88          492           96 
   14200        11435   -785755.96          592          120 
   14300        11435   -785801.21          692          137 
   14400        11435    -785654.6          792          152 
   14500        11435   -785788.11          892          173 
   14580        11435   -785893.14          972          190 
Loop time of 274.738 on 4 procs for 972 steps with 4311 atoms

Performance: 0.153 ns/day, 157.029 hours/ns, 3.538 timesteps/s
93.3% CPU use with 4 MPI tasks x no OpenMP threads

MPI task timing breakdown:
Section |  min time  |  avg time  |  max time  |%varavg| %total
---------------------------------------------------------------
Pair    | 2.9255     | 7.6697     | 11.459     | 129.2 |  2.79
Bond    | 0.0018397  | 0.003783   | 0.008955   |   4.9 |  0.00
Kspace  | 64.589     | 68.383     | 73.129     |  43.3 | 24.89
Neigh   | 17.302     | 17.329     | 17.368     |   0.6 |  6.31
Comm    | 0.46902    | 0.52021    | 0.55385    |   5.0 |  0.19
Output  | 0.00022315 | 0.00055139 | 0.0013464  |   0.0 |  0.00
Modify  | 180.79     | 180.8      | 180.81     |   0.1 | 65.81
Other   |            | 0.02955    |            |       |  0.01

Nlocal:        1077.75 ave        1494 max         657 min
Histogram: 1 1 0 0 0 0 0 0 1 1
Nghost:        8908.75 ave       11946 max        5684 min
Histogram: 1 1 0 0 0 0 0 0 0 2
Neighs:         536036 ave      798165 max      198523 min
Histogram: 1 0 0 1 0 0 0 0 0 2

Total # of neighbors = 2144145
Ave neighs/atom = 497.36604
Ave special neighs/atom = 0.029227557
Neighbor list builds = 1944
Dangerous builds = 0

  unfix swp
  thermo_style custom step temp pe

next temp
jump SELF minimize_temp

  variable ftemp equal v_temp

  # Electrostatic relaxation
  fix swp swpFe atom/swap 1 1 ${rand} ${temp} ke no types 6 7
  fix swp swpFe atom/swap 1 1 980195 ${temp} ke no types 6 7
  fix swp swpFe atom/swap 1 1 980195 10291 ke no types 6 7
  thermo 100
  thermo_style custom step v_ftemp pe f_swp[1] f_swp[2]
  run ${nsteps}
  run 972
WARNING: No fixes with time integration, atoms won't move (../verlet.cpp:60)
PPPM initialization ...
  using 12-bit tables for long-range coulomb (../kspace.cpp:340)
  G vector (1/distance) = 0.29499995
  grid = 45 45 250
  stencil order = 5
  estimated absolute RMS force accuracy = 0.00038527262
  estimated relative force accuracy = 1.160237e-06
  using double precision KISS FFT
  3d grid and FFT values/proc = 554040 378675
  generated 45 of 45 mixed pair_coeff terms from arithmetic mixing rule
Per MPI rank memory allocation (min/avg/max) = 24.35 | 35.11 | 63.71 Mbytes
Step v_ftemp PotEng f_swp[1] f_swp[2] 
   14580        10291   -785893.14            0            0 
   14600        10291   -785942.55           20            3 
   14700        10291   -785919.72          120           25 
   14800        10291   -785749.71          220           44 
   14900        10291   -785774.39          320           66 
   15000        10291   -785945.92          420           83 
   15100        10291   -785817.45          520           99 
   15200        10291   -785843.57          620          119 
   15300        10291   -785801.06          720          135 
   15400        10291   -785812.66          820          159 
   15500        10291   -785708.96          920          178 
   15552        10291   -785650.54          972          189 
Loop time of 275.648 on 4 procs for 972 steps with 4311 atoms

Performance: 0.152 ns/day, 157.549 hours/ns, 3.526 timesteps/s
92.2% CPU use with 4 MPI tasks x no OpenMP threads

MPI task timing breakdown:
Section |  min time  |  avg time  |  max time  |%varavg| %total
---------------------------------------------------------------
Pair    | 2.9882     | 7.8669     | 11.74      | 131.7 |  2.85
Bond    | 0.0023777  | 0.00428    | 0.009696   |   4.8 |  0.00
Kspace  | 64.285     | 68.169     | 73.048     |  44.8 | 24.73
Neigh   | 17.697     | 17.728     | 17.775     |   0.8 |  6.43
Comm    | 0.51445    | 0.59171    | 0.65482    |   6.8 |  0.21
Output  | 0.0002636  | 0.00062862 | 0.001498   |   0.0 |  0.00
Modify  | 181.22     | 181.25     | 181.29     |   0.2 | 65.76
Other   |            | 0.03275    |            |       |  0.01

Nlocal:        1077.75 ave        1494 max         657 min
Histogram: 1 1 0 0 0 0 0 0 1 1
Nghost:        8908.75 ave       11946 max        5684 min
Histogram: 1 1 0 0 0 0 0 0 0 2
Neighs:         536036 ave      798165 max      198523 min
Histogram: 1 0 0 1 0 0 0 0 0 2

Total # of neighbors = 2144145
Ave neighs/atom = 497.36604
Ave special neighs/atom = 0.029227557
Neighbor list builds = 1944
Dangerous builds = 0

  unfix swp
  thermo_style custom step temp pe

next temp
jump SELF minimize_temp

  variable ftemp equal v_temp

  # Electrostatic relaxation
  fix swp swpFe atom/swap 1 1 ${rand} ${temp} ke no types 6 7
  fix swp swpFe atom/swap 1 1 2065900 ${temp} ke no types 6 7
  fix swp swpFe atom/swap 1 1 2065900 9261 ke no types 6 7
  thermo 100
  thermo_style custom step v_ftemp pe f_swp[1] f_swp[2]
  run ${nsteps}
  run 972
WARNING: No fixes with time integration, atoms won't move (../verlet.cpp:60)
PPPM initialization ...
  using 12-bit tables for long-range coulomb (../kspace.cpp:340)
  G vector (1/distance) = 0.29499995
  grid = 45 45 250
  stencil order = 5
  estimated absolute RMS force accuracy = 0.00038527262
  estimated relative force accuracy = 1.160237e-06
  using double precision KISS FFT
  3d grid and FFT values/proc = 554040 378675
  generated 45 of 45 mixed pair_coeff terms from arithmetic mixing rule
Per MPI rank memory allocation (min/avg/max) = 24.35 | 35.11 | 63.71 Mbytes
Step v_ftemp PotEng f_swp[1] f_swp[2] 
   15552         9261   -785650.54            0            0 
   15600         9261   -785829.22           48            7 
   15700         9261   -785840.96          148           30 
   15800         9261   -785926.72          248           42 
   15900         9261   -785874.65          348           53 
   16000         9261    -785887.2          448           72 
   16100         9261   -785934.88          548           96 
   16200         9261   -785951.18          648          108 
   16300         9261   -785866.73          748          117 
   16400         9261    -785840.4          848          131 
   16500         9261   -785826.68          948          146 
   16524         9261   -785866.81          972          152 
Loop time of 282.772 on 4 procs for 972 steps with 4311 atoms

Performance: 0.148 ns/day, 161.621 hours/ns, 3.437 timesteps/s
92.0% CPU use with 4 MPI tasks x no OpenMP threads

MPI task timing breakdown:
Section |  min time  |  avg time  |  max time  |%varavg| %total
---------------------------------------------------------------
Pair    | 3.0209     | 7.7678     | 11.586     | 128.9 |  2.75
Bond    | 0.0017904  | 0.0038742  | 0.0089346  |   4.7 |  0.00
Kspace  | 67.191     | 71.014     | 75.768     |  42.7 | 25.11
Neigh   | 17.678     | 17.708     | 17.749     |   0.7 |  6.26
Comm    | 0.5281     | 0.57688    | 0.6232     |   5.7 |  0.20
Output  | 0.00026117 | 0.00059523 | 0.0013771  |   0.0 |  0.00
Modify  | 185.64     | 185.67     | 185.69     |   0.1 | 65.66
Other   |            | 0.0311     |            |       |  0.01

Nlocal:        1077.75 ave        1494 max         657 min
Histogram: 1 1 0 0 0 0 0 0 1 1
Nghost:        8908.75 ave       11946 max        5684 min
Histogram: 1 1 0 0 0 0 0 0 0 2
Neighs:         536036 ave      798165 max      198523 min
Histogram: 1 0 0 1 0 0 0 0 0 2

Total # of neighbors = 2144145
Ave neighs/atom = 497.36604
Ave special neighs/atom = 0.029227557
Neighbor list builds = 1944
Dangerous builds = 0

  unfix swp
  thermo_style custom step temp pe

next temp
jump SELF minimize_temp

  variable ftemp equal v_temp

  # Electrostatic relaxation
  fix swp swpFe atom/swap 1 1 ${rand} ${temp} ke no types 6 7
  fix swp swpFe atom/swap 1 1 5185835 ${temp} ke no types 6 7
  fix swp swpFe atom/swap 1 1 5185835 8334 ke no types 6 7
  thermo 100
  thermo_style custom step v_ftemp pe f_swp[1] f_swp[2]
  run ${nsteps}
  run 972
WARNING: No fixes with time integration, atoms won't move (../verlet.cpp:60)
PPPM initialization ...
  using 12-bit tables for long-range coulomb (../kspace.cpp:340)
  G vector (1/distance) = 0.29499995
  grid = 45 45 250
  stencil order = 5
  estimated absolute RMS force accuracy = 0.00038527262
  estimated relative force accuracy = 1.160237e-06
  using double precision KISS FFT
  3d grid and FFT values/proc = 554040 378675
  generated 45 of 45 mixed pair_coeff terms from arithmetic mixing rule
Per MPI rank memory allocation (min/avg/max) = 24.35 | 35.11 | 63.71 Mbytes
Step v_ftemp PotEng f_swp[1] f_swp[2] 
   16524         8334   -785866.81            0            0 
   16600         8334   -785820.09           76           10 
   16700         8334   -785922.45          176           31 
   16800         8334   -785903.91          276           49 
   16900         8334   -785961.48          376           60 
   17000         8334   -785972.69          476           73 
   17100         8334   -785879.28          576           83 
   17200         8334   -785889.12          676           99 
   17300         8334   -785997.92          776          109 
   17400         8334   -785930.68          876          122 
   17496         8334   -785879.18          972          140 
Loop time of 281.452 on 4 procs for 972 steps with 4311 atoms

Performance: 0.149 ns/day, 160.867 hours/ns, 3.454 timesteps/s
93.3% CPU use with 4 MPI tasks x no OpenMP threads

MPI task timing breakdown:
Section |  min time  |  avg time  |  max time  |%varavg| %total
---------------------------------------------------------------
Pair    | 2.8619     | 7.6436     | 11.468     | 130.7 |  2.72
Bond    | 0.0019599  | 0.0036766  | 0.0081951  |   4.3 |  0.00
Kspace  | 67.835     | 71.663     | 76.45      |  42.8 | 25.46
Neigh   | 17.373     | 17.4       | 17.436     |   0.6 |  6.18
Comm    | 0.45604    | 0.50875    | 0.54562    |   5.1 |  0.18
Output  | 0.00021061 | 0.00054213 | 0.0013597  |   0.0 |  0.00
Modify  | 184.19     | 184.2      | 184.22     |   0.1 | 65.45
Other   |            | 0.02835    |            |       |  0.01

Nlocal:        1077.75 ave        1494 max         657 min
Histogram: 1 1 0 0 0 0 0 0 1 1
Nghost:        8908.75 ave       11946 max        5684 min
Histogram: 1 1 0 0 0 0 0 0 0 2
Neighs:         536036 ave      798165 max      198523 min
Histogram: 1 0 0 1 0 0 0 0 0 2

Total # of neighbors = 2144145
Ave neighs/atom = 497.36604
Ave special neighs/atom = 0.029227557
Neighbor list builds = 1944
Dangerous builds = 0

  unfix swp
  thermo_style custom step temp pe

next temp
jump SELF minimize_temp

  variable ftemp equal v_temp

  # Electrostatic relaxation
  fix swp swpFe atom/swap 1 1 ${rand} ${temp} ke no types 6 7
  fix swp swpFe atom/swap 1 1 3359353 ${temp} ke no types 6 7
  fix swp swpFe atom/swap 1 1 3359353 7500 ke no types 6 7
  thermo 100
  thermo_style custom step v_ftemp pe f_swp[1] f_swp[2]
  run ${nsteps}
  run 972
WARNING: No fixes with time integration, atoms won't move (../verlet.cpp:60)
PPPM initialization ...
  using 12-bit tables for long-range coulomb (../kspace.cpp:340)
  G vector (1/distance) = 0.29499995
  grid = 45 45 250
  stencil order = 5
  estimated absolute RMS force accuracy = 0.00038527262
  estimated relative force accuracy = 1.160237e-06
  using double precision KISS FFT
  3d grid and FFT values/proc = 554040 378675
  generated 45 of 45 mixed pair_coeff terms from arithmetic mixing rule
Per MPI rank memory allocation (min/avg/max) = 24.35 | 35.11 | 63.71 Mbytes
Step v_ftemp PotEng f_swp[1] f_swp[2] 
   17496         7500   -785879.18            0            0 
   17500         7500   -785839.14            4            1 
   17600         7500   -785927.02          104           19 
   17700         7500   -785965.67          204           28 
   17800         7500   -786035.66          304           38 
   17900         7500   -786000.11          404           45 
   18000         7500    -785892.9          504           54 
   18100         7500   -786000.67          604           73 
   18200         7500   -786056.43          704           82 
   18300         7500   -785985.05          804           94 
   18400         7500   -785956.32          904          102 
   18468         7500      -785965          972          108 
Loop time of 283.733 on 4 procs for 972 steps with 4311 atoms

Performance: 0.148 ns/day, 162.170 hours/ns, 3.426 timesteps/s
93.2% CPU use with 4 MPI tasks x no OpenMP threads

MPI task timing breakdown:
Section |  min time  |  avg time  |  max time  |%varavg| %total
---------------------------------------------------------------
Pair    | 2.8779     | 7.5187     | 11.197     | 127.4 |  2.65
Bond    | 0.001824   | 0.0033526  | 0.0078429  |   4.5 |  0.00
Kspace  | 67.744     | 71.435     | 76.083     |  41.4 | 25.18
Neigh   | 17.178     | 17.205     | 17.237     |   0.6 |  6.06
Comm    | 0.5612     | 0.603      | 0.65139    |   5.3 |  0.21
Output  | 0.00022016 | 0.0005532  | 0.0013616  |   0.0 |  0.00
Modify  | 186.92     | 186.94     | 186.96     |   0.1 | 65.89
Other   |            | 0.02669    |            |       |  0.01

Nlocal:        1077.75 ave        1494 max         657 min
Histogram: 1 1 0 0 0 0 0 0 1 1
Nghost:        8908.75 ave       11946 max        5684 min
Histogram: 1 1 0 0 0 0 0 0 0 2
Neighs:         536036 ave      798165 max      198523 min
Histogram: 1 0 0 1 0 0 0 0 0 2

Total # of neighbors = 2144145
Ave neighs/atom = 497.36604
Ave special neighs/atom = 0.029227557
Neighbor list builds = 1944
Dangerous builds = 0

  unfix swp
  thermo_style custom step temp pe

next temp
jump SELF minimize_temp

  variable ftemp equal v_temp

  # Electrostatic relaxation
  fix swp swpFe atom/swap 1 1 ${rand} ${temp} ke no types 6 7
  fix swp swpFe atom/swap 1 1 6806545 ${temp} ke no types 6 7
  fix swp swpFe atom/swap 1 1 6806545 6750 ke no types 6 7
  thermo 100
  thermo_style custom step v_ftemp pe f_swp[1] f_swp[2]
  run ${nsteps}
  run 972
WARNING: No fixes with time integration, atoms won't move (../verlet.cpp:60)
PPPM initialization ...
  using 12-bit tables for long-range coulomb (../kspace.cpp:340)
  G vector (1/distance) = 0.29499995
  grid = 45 45 250
  stencil order = 5
  estimated absolute RMS force accuracy = 0.00038527262
  estimated relative force accuracy = 1.160237e-06
  using double precision KISS FFT
  3d grid and FFT values/proc = 554040 378675
  generated 45 of 45 mixed pair_coeff terms from arithmetic mixing rule
Per MPI rank memory allocation (min/avg/max) = 24.35 | 35.11 | 63.71 Mbytes
Step v_ftemp PotEng f_swp[1] f_swp[2] 
   18468         6750      -785965            0            0 
   18500         6750   -785916.12           32            1 
   18600         6750   -785996.27          132           15 
   18700         6750   -785940.23          232           27 
   18800         6750   -785911.55          332           39 
   18900         6750   -785906.88          432           46 
   19000         6750   -786019.91          532           59 
   19100         6750   -786034.55          632           69 
   19200         6750   -785987.95          732           83 
   19300         6750   -785952.76          832           98 
   19400         6750   -785959.72          932          110 
   19440         6750   -785995.36          972          112 
Loop time of 285.371 on 4 procs for 972 steps with 4311 atoms

Performance: 0.147 ns/day, 163.106 hours/ns, 3.406 timesteps/s
93.5% CPU use with 4 MPI tasks x no OpenMP threads

MPI task timing breakdown:
Section |  min time  |  avg time  |  max time  |%varavg| %total
---------------------------------------------------------------
Pair    | 2.8089     | 7.4541     | 11.137     | 128.3 |  2.61
Bond    | 0.0018384  | 0.0032615  | 0.0074828  |   4.3 |  0.00
Kspace  | 68.946     | 72.636     | 77.281     |  41.1 | 25.45
Neigh   | 16.88      | 16.907     | 16.944     |   0.6 |  5.92
Comm    | 0.46511    | 0.52569    | 0.5713     |   5.8 |  0.18
Output  | 0.0002411  | 0.0005775  | 0.0013824  |   0.0 |  0.00
Modify  | 187.8      | 187.82     | 187.84     |   0.1 | 65.82
Other   |            | 0.02568    |            |       |  0.01

Nlocal:        1077.75 ave        1494 max         657 min
Histogram: 1 1 0 0 0 0 0 0 1 1
Nghost:        8908.75 ave       11946 max        5684 min
Histogram: 1 1 0 0 0 0 0 0 0 2
Neighs:         536036 ave      798165 max      198523 min
Histogram: 1 0 0 1 0 0 0 0 0 2

Total # of neighbors = 2144145
Ave neighs/atom = 497.36604
Ave special neighs/atom = 0.029227557
Neighbor list builds = 1944
Dangerous builds = 0

  unfix swp
  thermo_style custom step temp pe

next temp
jump SELF minimize_temp

  variable ftemp equal v_temp

  # Electrostatic relaxation
  fix swp swpFe atom/swap 1 1 ${rand} ${temp} ke no types 6 7
  fix swp swpFe atom/swap 1 1 594805 ${temp} ke no types 6 7
  fix swp swpFe atom/swap 1 1 594805 6075 ke no types 6 7
  thermo 100
  thermo_style custom step v_ftemp pe f_swp[1] f_swp[2]
  run ${nsteps}
  run 972
WARNING: No fixes with time integration, atoms won't move (../verlet.cpp:60)
PPPM initialization ...
  using 12-bit tables for long-range coulomb (../kspace.cpp:340)
  G vector (1/distance) = 0.29499995
  grid = 45 45 250
  stencil order = 5
  estimated absolute RMS force accuracy = 0.00038527262
  estimated relative force accuracy = 1.160237e-06
  using double precision KISS FFT
  3d grid and FFT values/proc = 554040 378675
  generated 45 of 45 mixed pair_coeff terms from arithmetic mixing rule
Per MPI rank memory allocation (min/avg/max) = 24.35 | 35.11 | 63.71 Mbytes
Step v_ftemp PotEng f_swp[1] f_swp[2] 
   19440         6075   -785995.36            0            0 
   19500         6075   -786014.27           60            6 
   19600         6075   -785980.29          160           20 
   19700         6075   -785997.17          260           28 
   19800         6075   -785989.84          360           40 
   19900         6075   -786000.44          460           47 
   20000         6075   -785934.03          560           56 
   20100         6075   -785989.71          660           66 
   20200         6075   -785953.03          760           73 
   20300         6075   -785959.17          860           85 
   20400         6075   -785969.17          960           95 
   20412         6075   -786025.21          972           96 
Loop time of 279.639 on 4 procs for 972 steps with 4311 atoms

Performance: 0.150 ns/day, 159.830 hours/ns, 3.476 timesteps/s
93.4% CPU use with 4 MPI tasks x no OpenMP threads

MPI task timing breakdown:
Section |  min time  |  avg time  |  max time  |%varavg| %total
---------------------------------------------------------------
Pair    | 2.8639     | 7.6227     | 11.372     | 129.2 |  2.73
Bond    | 0.0020287  | 0.0037775  | 0.0084547  |   4.4 |  0.00
Kspace  | 66.864     | 70.617     | 75.378     |  42.5 | 25.25
Neigh   | 17.015     | 17.04      | 17.077     |   0.6 |  6.09
Comm    | 0.44256    | 0.48866    | 0.52042    |   4.8 |  0.17
Output  | 0.00024728 | 0.00073496 | 0.0019906  |   0.0 |  0.00
Modify  | 183.83     | 183.84     | 183.85     |   0.1 | 65.74
Other   |            | 0.02593    |            |       |  0.01

Nlocal:        1077.75 ave        1494 max         657 min
Histogram: 1 1 0 0 0 0 0 0 1 1
Nghost:        8908.75 ave       11946 max        5684 min
Histogram: 1 1 0 0 0 0 0 0 0 2
Neighs:         536036 ave      798165 max      198523 min
Histogram: 1 0 0 1 0 0 0 0 0 2

Total # of neighbors = 2144145
Ave neighs/atom = 497.36604
Ave special neighs/atom = 0.029227557
Neighbor list builds = 1944
Dangerous builds = 0

  unfix swp
  thermo_style custom step temp pe

next temp
jump SELF minimize_temp

  variable ftemp equal v_temp

  # Electrostatic relaxation
  fix swp swpFe atom/swap 1 1 ${rand} ${temp} ke no types 6 7
  fix swp swpFe atom/swap 1 1 3129163 ${temp} ke no types 6 7
  fix swp swpFe atom/swap 1 1 3129163 5467 ke no types 6 7
  thermo 100
  thermo_style custom step v_ftemp pe f_swp[1] f_swp[2]
  run ${nsteps}
  run 972
WARNING: No fixes with time integration, atoms won't move (../verlet.cpp:60)
PPPM initialization ...
  using 12-bit tables for long-range coulomb (../kspace.cpp:340)
  G vector (1/distance) = 0.29499995
  grid = 45 45 250
  stencil order = 5
  estimated absolute RMS force accuracy = 0.00038527262
  estimated relative force accuracy = 1.160237e-06
  using double precision KISS FFT
  3d grid and FFT values/proc = 554040 378675
  generated 45 of 45 mixed pair_coeff terms from arithmetic mixing rule
Per MPI rank memory allocation (min/avg/max) = 24.35 | 35.11 | 63.71 Mbytes
Step v_ftemp PotEng f_swp[1] f_swp[2] 
   20412         5467   -786025.21            0            0 
   20500         5467   -786084.45           88            8 
   20600         5467   -786059.89          188           13 
   20700         5467   -786085.08          288           20 
   20800         5467   -786097.65          388           24 
   20900         5467      -786055          488           33 
   21000         5467   -786070.31          588           34 
   21100         5467   -786100.09          688           41 
   21200         5467   -786118.37          788           42 
   21300         5467   -786127.29          888           45 
   21384         5467   -786074.85          972           52 
Loop time of 278.669 on 4 procs for 972 steps with 4311 atoms

Performance: 0.151 ns/day, 159.276 hours/ns, 3.488 timesteps/s
93.2% CPU use with 4 MPI tasks x no OpenMP threads

MPI task timing breakdown:
Section |  min time  |  avg time  |  max time  |%varavg| %total
---------------------------------------------------------------
Pair    | 2.916      | 7.7241     | 11.549     | 130.7 |  2.77
Bond    | 0.0020613  | 0.0039385  | 0.008789   |   4.5 |  0.00
Kspace  | 65.979     | 69.815     | 74.622     |  43.5 | 25.05
Neigh   | 17.01      | 17.035     | 17.07      |   0.6 |  6.11
Comm    | 0.43577    | 0.4828     | 0.52358    |   4.8 |  0.17
Output  | 0.00022995 | 0.00050945 | 0.0011479  |   0.0 |  0.00
Modify  | 183.56     | 183.58     | 183.59     |   0.1 | 65.88
Other   |            | 0.02914    |            |       |  0.01

Nlocal:        1077.75 ave        1494 max         657 min
Histogram: 1 1 0 0 0 0 0 0 1 1
Nghost:        8908.75 ave       11946 max        5684 min
Histogram: 1 1 0 0 0 0 0 0 0 2
Neighs:         536036 ave      798165 max      198523 min
Histogram: 1 0 0 1 0 0 0 0 0 2

Total # of neighbors = 2144145
Ave neighs/atom = 497.36604
Ave special neighs/atom = 0.029227557
Neighbor list builds = 1944
Dangerous builds = 0

  unfix swp
  thermo_style custom step temp pe

next temp
jump SELF minimize_temp

  variable ftemp equal v_temp

  # Electrostatic relaxation
  fix swp swpFe atom/swap 1 1 ${rand} ${temp} ke no types 6 7
  fix swp swpFe atom/swap 1 1 8397505 ${temp} ke no types 6 7
  fix swp swpFe atom/swap 1 1 8397505 4920 ke no types 6 7
  thermo 100
  thermo_style custom step v_ftemp pe f_swp[1] f_swp[2]
  run ${nsteps}
  run 972
WARNING: No fixes with time integration, atoms won't move (../verlet.cpp:60)
PPPM initialization ...
  using 12-bit tables for long-range coulomb (../kspace.cpp:340)
  G vector (1/distance) = 0.29499995
  grid = 45 45 250
  stencil order = 5
  estimated absolute RMS force accuracy = 0.00038527262
  estimated relative force accuracy = 1.160237e-06
  using double precision KISS FFT
  3d grid and FFT values/proc = 554040 378675
  generated 45 of 45 mixed pair_coeff terms from arithmetic mixing rule
Per MPI rank memory allocation (min/avg/max) = 24.35 | 35.11 | 63.71 Mbytes
Step v_ftemp PotEng f_swp[1] f_swp[2] 
   21384         4920   -786074.85            0            0 
   21400         4920   -786074.85           16            0 
   21500         4920   -786090.53          116            4 
   21600         4920   -786094.38          216            5 
   21700         4920   -786024.26          316           12 
   21800         4920   -786064.07          416           20 
   21900         4920   -786035.86          516           29 
   22000         4920   -786045.11          616           35 
   22100         4920   -786048.02          716           40 
   22200         4920   -786067.81          816           50 
   22300         4920   -786068.19          916           56 
   22356         4920   -786026.22          972           57 
Loop time of 276.972 on 4 procs for 972 steps with 4311 atoms

Performance: 0.152 ns/day, 158.306 hours/ns, 3.509 timesteps/s
93.6% CPU use with 4 MPI tasks x no OpenMP threads

MPI task timing breakdown:
Section |  min time  |  avg time  |  max time  |%varavg| %total
---------------------------------------------------------------
Pair    | 2.85       | 7.5054     | 11.131     | 127.8 |  2.71
Bond    | 0.0020988  | 0.0037038  | 0.008289   |   4.4 |  0.00
Kspace  | 68.143     | 71.766     | 76.43      |  41.4 | 25.91
Neigh   | 16.745     | 16.77      | 16.807     |   0.6 |  6.05
Comm    | 0.46071    | 0.52317    | 0.55969    |   5.5 |  0.19
Output  | 0.00023379 | 0.00057209 | 0.0013367  |   0.0 |  0.00
Modify  | 180.36     | 180.38     | 180.41     |   0.2 | 65.13
Other   |            | 0.02352    |            |       |  0.01

Nlocal:        1077.75 ave        1494 max         657 min
Histogram: 1 1 0 0 0 0 0 0 1 1
Nghost:        8908.75 ave       11946 max        5684 min
Histogram: 1 1 0 0 0 0 0 0 0 2
Neighs:         536036 ave      798165 max      198523 min
Histogram: 1 0 0 1 0 0 0 0 0 2

Total # of neighbors = 2144145
Ave neighs/atom = 497.36604
Ave special neighs/atom = 0.029227557
Neighbor list builds = 1944
Dangerous builds = 0

  unfix swp
  thermo_style custom step temp pe

next temp
jump SELF minimize_temp

  variable ftemp equal v_temp

  # Electrostatic relaxation
  fix swp swpFe atom/swap 1 1 ${rand} ${temp} ke no types 6 7
  fix swp swpFe atom/swap 1 1 7746391 ${temp} ke no types 6 7
  fix swp swpFe atom/swap 1 1 7746391 4428 ke no types 6 7
  thermo 100
  thermo_style custom step v_ftemp pe f_swp[1] f_swp[2]
  run ${nsteps}
  run 972
WARNING: No fixes with time integration, atoms won't move (../verlet.cpp:60)
PPPM initialization ...
  using 12-bit tables for long-range coulomb (../kspace.cpp:340)
  G vector (1/distance) = 0.29499995
  grid = 45 45 250
  stencil order = 5
  estimated absolute RMS force accuracy = 0.00038527262
  estimated relative force accuracy = 1.160237e-06
  using double precision KISS FFT
  3d grid and FFT values/proc = 554040 378675
  generated 45 of 45 mixed pair_coeff terms from arithmetic mixing rule
Per MPI rank memory allocation (min/avg/max) = 24.35 | 35.11 | 63.71 Mbytes
Step v_ftemp PotEng f_swp[1] f_swp[2] 
   22356         4428   -786026.22            0            0 
   22400         4428   -786033.91           44            4 
   22500         4428   -786015.14          144           12 
   22600         4428   -786070.02          244           18 
   22700         4428   -786064.47          344           20 
   22800         4428   -786050.27          444           23 
   22900         4428   -786061.54          544           28 
   23000         4428   -786027.67          644           33 
   23100         4428   -786083.87          744           38 
   23200         4428   -786090.82          844           45 
   23300         4428   -786099.26          944           49 
   23328         4428   -786099.26          972           49 
Loop time of 275.239 on 4 procs for 972 steps with 4311 atoms

Performance: 0.153 ns/day, 157.315 hours/ns, 3.531 timesteps/s
93.9% CPU use with 4 MPI tasks x no OpenMP threads

MPI task timing breakdown:
Section |  min time  |  avg time  |  max time  |%varavg| %total
---------------------------------------------------------------
Pair    | 2.8396     | 7.5216     | 11.157     | 128.3 |  2.73
Bond    | 0.0016367  | 0.0035906  | 0.0083348  |   4.6 |  0.00
Kspace  | 66.05      | 69.69      | 74.373     |  42.2 | 25.32
Neigh   | 16.677     | 16.703     | 16.738     |   0.6 |  6.07
Comm    | 0.42395    | 0.47408    | 0.50726    |   5.0 |  0.17
Output  | 0.00023483 | 0.00065971 | 0.0017189  |   0.0 |  0.00
Modify  | 180.81     | 180.82     | 180.83     |   0.1 | 65.70
Other   |            | 0.02608    |            |       |  0.01

Nlocal:        1077.75 ave        1494 max         657 min
Histogram: 1 1 0 0 0 0 0 0 1 1
Nghost:        8908.75 ave       11946 max        5684 min
Histogram: 1 1 0 0 0 0 0 0 0 2
Neighs:         536036 ave      798165 max      198523 min
Histogram: 1 0 0 1 0 0 0 0 0 2

Total # of neighbors = 2144145
Ave neighs/atom = 497.36604
Ave special neighs/atom = 0.029227557
Neighbor list builds = 1944
Dangerous builds = 0

  unfix swp
  thermo_style custom step temp pe

next temp
jump SELF minimize_temp

  variable ftemp equal v_temp

  # Electrostatic relaxation
  fix swp swpFe atom/swap 1 1 ${rand} ${temp} ke no types 6 7
  fix swp swpFe atom/swap 1 1 6520128 ${temp} ke no types 6 7
  fix swp swpFe atom/swap 1 1 6520128 3985 ke no types 6 7
  thermo 100
  thermo_style custom step v_ftemp pe f_swp[1] f_swp[2]
  run ${nsteps}
  run 972
WARNING: No fixes with time integration, atoms won't move (../verlet.cpp:60)
PPPM initialization ...
  using 12-bit tables for long-range coulomb (../kspace.cpp:340)
  G vector (1/distance) = 0.29499995
  grid = 45 45 250
  stencil order = 5
  estimated absolute RMS force accuracy = 0.00038527262
  estimated relative force accuracy = 1.160237e-06
  using double precision KISS FFT
  3d grid and FFT values/proc = 554040 378675
  generated 45 of 45 mixed pair_coeff terms from arithmetic mixing rule
Per MPI rank memory allocation (min/avg/max) = 24.35 | 35.11 | 63.71 Mbytes
Step v_ftemp PotEng f_swp[1] f_swp[2] 
   23328         3985   -786099.26            0            0 
   23400         3985   -786107.85           72            3 
   23500         3985   -786127.28          172            6 
   23600         3985   -786128.08          272            7 
   23700         3985   -786100.59          372            9 
   23800         3985   -786102.09          472           16 
   23900         3985   -786087.54          572           22 
   24000         3985   -786072.83          672           27 
   24100         3985   -786092.65          772           35 
   24200         3985   -786073.04          872           38 
   24300         3985   -786060.34          972           47 
Loop time of 275.496 on 4 procs for 972 steps with 4311 atoms

Performance: 0.152 ns/day, 157.462 hours/ns, 3.528 timesteps/s
93.8% CPU use with 4 MPI tasks x no OpenMP threads

MPI task timing breakdown:
Section |  min time  |  avg time  |  max time  |%varavg| %total
---------------------------------------------------------------
Pair    | 2.8889     | 7.5708     | 11.23      | 128.4 |  2.75
Bond    | 0.0017992  | 0.0036708  | 0.0087213  |   4.8 |  0.00
Kspace  | 67.107     | 70.772     | 75.455     |  42.0 | 25.69
Neigh   | 16.715     | 16.739     | 16.773     |   0.6 |  6.08
Comm    | 0.40291    | 0.4477     | 0.47658    |   4.6 |  0.16
Output  | 0.00020475 | 0.00050288 | 0.0012484  |   0.0 |  0.00
Modify  | 179.93     | 179.94     | 179.95     |   0.1 | 65.31
Other   |            | 0.0248     |            |       |  0.01

Nlocal:        1077.75 ave        1494 max         657 min
Histogram: 1 1 0 0 0 0 0 0 1 1
Nghost:        8908.75 ave       11946 max        5684 min
Histogram: 1 1 0 0 0 0 0 0 0 2
Neighs:         536036 ave      798165 max      198523 min
Histogram: 1 0 0 1 0 0 0 0 0 2

Total # of neighbors = 2144145
Ave neighs/atom = 497.36604
Ave special neighs/atom = 0.029227557
Neighbor list builds = 1944
Dangerous builds = 0

  unfix swp
  thermo_style custom step temp pe

next temp
jump SELF minimize_temp

  variable ftemp equal v_temp

  # Electrostatic relaxation
  fix swp swpFe atom/swap 1 1 ${rand} ${temp} ke no types 6 7
  fix swp swpFe atom/swap 1 1 4419602 ${temp} ke no types 6 7
  fix swp swpFe atom/swap 1 1 4419602 3586 ke no types 6 7
  thermo 100
  thermo_style custom step v_ftemp pe f_swp[1] f_swp[2]
  run ${nsteps}
  run 972
WARNING: No fixes with time integration, atoms won't move (../verlet.cpp:60)
PPPM initialization ...
  using 12-bit tables for long-range coulomb (../kspace.cpp:340)
  G vector (1/distance) = 0.29499995
  grid = 45 45 250
  stencil order = 5
  estimated absolute RMS force accuracy = 0.00038527262
  estimated relative force accuracy = 1.160237e-06
  using double precision KISS FFT
  3d grid and FFT values/proc = 554040 378675
  generated 45 of 45 mixed pair_coeff terms from arithmetic mixing rule
Per MPI rank memory allocation (min/avg/max) = 24.35 | 35.11 | 63.71 Mbytes
Step v_ftemp PotEng f_swp[1] f_swp[2] 
   24300         3586   -786060.34            0            0 
   24400         3586   -786097.72          100            7 
   24500         3586   -786107.32          200            9 
   24600         3586   -786121.07          300           14 
   24700         3586   -786130.78          400           18 
   24800         3586   -786131.52          500           19 
   24900         3586   -786084.99          600           26 
   25000         3586   -786099.25          700           29 
   25100         3586   -786095.25          800           32 
   25200         3586   -786100.76          900           39 
   25272         3586   -786116.23          972           41 
Loop time of 272.077 on 4 procs for 972 steps with 4311 atoms

Performance: 0.154 ns/day, 155.508 hours/ns, 3.573 timesteps/s
94.5% CPU use with 4 MPI tasks x no OpenMP threads

MPI task timing breakdown:
Section |  min time  |  avg time  |  max time  |%varavg| %total
---------------------------------------------------------------
Pair    | 2.7899     | 7.3436     | 10.97      | 126.4 |  2.70
Bond    | 0.0013138  | 0.0030332  | 0.0073951  |   4.6 |  0.00
Kspace  | 65.857     | 69.488     | 74.043     |  41.1 | 25.54
Neigh   | 16.572     | 16.597     | 16.632     |   0.6 |  6.10
Comm    | 0.41008    | 0.45568    | 0.48554    |   4.7 |  0.17
Output  | 0.00017865 | 0.00043749 | 0.001063   |   0.0 |  0.00
Modify  | 178.16     | 178.17     | 178.18     |   0.1 | 65.48
Other   |            | 0.02272    |            |       |  0.01

Nlocal:        1077.75 ave        1494 max         657 min
Histogram: 1 1 0 0 0 0 0 0 1 1
Nghost:        8908.75 ave       11946 max        5684 min
Histogram: 1 1 0 0 0 0 0 0 0 2
Neighs:         536036 ave      798165 max      198523 min
Histogram: 1 0 0 1 0 0 0 0 0 2

Total # of neighbors = 2144145
Ave neighs/atom = 497.36604
Ave special neighs/atom = 0.029227557
Neighbor list builds = 1944
Dangerous builds = 0

  unfix swp
  thermo_style custom step temp pe

next temp
jump SELF minimize_temp

  variable ftemp equal v_temp

  # Electrostatic relaxation
  fix swp swpFe atom/swap 1 1 ${rand} ${temp} ke no types 6 7
  fix swp swpFe atom/swap 1 1 2199081 ${temp} ke no types 6 7
  fix swp swpFe atom/swap 1 1 2199081 3227 ke no types 6 7
  thermo 100
  thermo_style custom step v_ftemp pe f_swp[1] f_swp[2]
  run ${nsteps}
  run 972
WARNING: No fixes with time integration, atoms won't move (../verlet.cpp:60)
PPPM initialization ...
  using 12-bit tables for long-range coulomb (../kspace.cpp:340)
  G vector (1/distance) = 0.29499995
  grid = 45 45 250
  stencil order = 5
  estimated absolute RMS force accuracy = 0.00038527262
  estimated relative force accuracy = 1.160237e-06
  using double precision KISS FFT
  3d grid and FFT values/proc = 554040 378675
  generated 45 of 45 mixed pair_coeff terms from arithmetic mixing rule
Per MPI rank memory allocation (min/avg/max) = 24.35 | 35.11 | 63.71 Mbytes
Step v_ftemp PotEng f_swp[1] f_swp[2] 
   25272         3227   -786116.23            0            0 
   25300         3227   -786112.12           28            1 
   25400         3227   -786112.12          128            1 
   25500         3227   -786095.35          228            5 
   25600         3227   -786101.43          328            7 
   25700         3227    -786096.5          428            9 
   25800         3227   -786096.93          528           11 
   25900         3227   -786127.75          628           15 
   26000         3227   -786120.08          728           20 
   26100         3227   -786132.38          828           23 
   26200         3227   -786132.38          928           28 
   26244         3227   -786120.87          972           29 
Loop time of 270.62 on 4 procs for 972 steps with 4311 atoms

Performance: 0.155 ns/day, 154.675 hours/ns, 3.592 timesteps/s
94.1% CPU use with 4 MPI tasks x no OpenMP threads

MPI task timing breakdown:
Section |  min time  |  avg time  |  max time  |%varavg| %total
---------------------------------------------------------------
Pair    | 2.8224     | 7.4952     | 11.113     | 127.3 |  2.77
Bond    | 0.0014263  | 0.0034631  | 0.008335   |   4.8 |  0.00
Kspace  | 64.586     | 68.216     | 72.896     |  42.3 | 25.21
Neigh   | 16.667     | 16.692     | 16.728     |   0.6 |  6.17
Comm    | 0.4237     | 0.48079    | 0.52238    |   6.1 |  0.18
Output  | 0.00021362 | 0.00050944 | 0.0012314  |   0.0 |  0.00
Modify  | 177.69     | 177.71     | 177.73     |   0.1 | 65.67
Other   |            | 0.0241     |            |       |  0.01

Nlocal:        1077.75 ave        1494 max         657 min
Histogram: 1 1 0 0 0 0 0 0 1 1
Nghost:        8908.75 ave       11946 max        5684 min
Histogram: 1 1 0 0 0 0 0 0 0 2
Neighs:         536036 ave      798165 max      198523 min
Histogram: 1 0 0 1 0 0 0 0 0 2

Total # of neighbors = 2144145
Ave neighs/atom = 497.36604
Ave special neighs/atom = 0.029227557
Neighbor list builds = 1944
Dangerous builds = 0

  unfix swp
  thermo_style custom step temp pe

next temp
jump SELF minimize_temp

  variable ftemp equal v_temp

  # Electrostatic relaxation
  fix swp swpFe atom/swap 1 1 ${rand} ${temp} ke no types 6 7
  fix swp swpFe atom/swap 1 1 6067438 ${temp} ke no types 6 7
  fix swp swpFe atom/swap 1 1 6067438 2904 ke no types 6 7
  thermo 100
  thermo_style custom step v_ftemp pe f_swp[1] f_swp[2]
  run ${nsteps}
  run 972
WARNING: No fixes with time integration, atoms won't move (../verlet.cpp:60)
PPPM initialization ...
  using 12-bit tables for long-range coulomb (../kspace.cpp:340)
  G vector (1/distance) = 0.29499995
  grid = 45 45 250
  stencil order = 5
  estimated absolute RMS force accuracy = 0.00038527262
  estimated relative force accuracy = 1.160237e-06
  using double precision KISS FFT
  3d grid and FFT values/proc = 554040 378675
  generated 45 of 45 mixed pair_coeff terms from arithmetic mixing rule
Per MPI rank memory allocation (min/avg/max) = 24.35 | 35.11 | 63.71 Mbytes
Step v_ftemp PotEng f_swp[1] f_swp[2] 
   26244         2904   -786120.87            0            0 
   26300         2904   -786117.49           56            1 
   26400         2904   -786078.26          156            6 
   26500         2904    -786121.5          256            9 
   26600         2904   -786121.51          356           11 
   26700         2904   -786129.91          456           13 
   26800         2904   -786131.24          556           14 
   26900         2904   -786111.06          656           17 
   27000         2904   -786123.07          756           18 
   27100         2904   -786127.27          856           20 
   27200         2904   -786125.68          956           23 
   27216         2904   -786125.68          972           23 
Loop time of 271.348 on 4 procs for 972 steps with 4311 atoms

Performance: 0.155 ns/day, 155.091 hours/ns, 3.582 timesteps/s
94.4% CPU use with 4 MPI tasks x no OpenMP threads

MPI task timing breakdown:
Section |  min time  |  avg time  |  max time  |%varavg| %total
---------------------------------------------------------------
Pair    | 2.8198     | 7.3748     | 10.985     | 126.7 |  2.72
Bond    | 0.0013278  | 0.0030069  | 0.0077357  |   5.0 |  0.00
Kspace  | 65.317     | 68.931     | 73.486     |  41.5 | 25.40
Neigh   | 16.514     | 16.538     | 16.571     |   0.6 |  6.09
Comm    | 0.39477    | 0.43627    | 0.4648     |   4.4 |  0.16
Output  | 0.00020462 | 0.00050056 | 0.001226   |   0.0 |  0.00
Modify  | 178.03     | 178.04     | 178.05     |   0.1 | 65.61
Other   |            | 0.02318    |            |       |  0.01

Nlocal:        1077.75 ave        1494 max         657 min
Histogram: 1 1 0 0 0 0 0 0 1 1
Nghost:        8908.75 ave       11946 max        5684 min
Histogram: 1 1 0 0 0 0 0 0 0 2
Neighs:         536036 ave      798165 max      198523 min
Histogram: 1 0 0 1 0 0 0 0 0 2

Total # of neighbors = 2144145
Ave neighs/atom = 497.36604
Ave special neighs/atom = 0.029227557
Neighbor list builds = 1944
Dangerous builds = 0

  unfix swp
  thermo_style custom step temp pe

next temp
jump SELF minimize_temp

  variable ftemp equal v_temp

  # Electrostatic relaxation
  fix swp swpFe atom/swap 1 1 ${rand} ${temp} ke no types 6 7
  fix swp swpFe atom/swap 1 1 3316115 ${temp} ke no types 6 7
  fix swp swpFe atom/swap 1 1 3316115 2613 ke no types 6 7
  thermo 100
  thermo_style custom step v_ftemp pe f_swp[1] f_swp[2]
  run ${nsteps}
  run 972
WARNING: No fixes with time integration, atoms won't move (../verlet.cpp:60)
PPPM initialization ...
  using 12-bit tables for long-range coulomb (../kspace.cpp:340)
  G vector (1/distance) = 0.29499995
  grid = 45 45 250
  stencil order = 5
  estimated absolute RMS force accuracy = 0.00038527262
  estimated relative force accuracy = 1.160237e-06
  using double precision KISS FFT
  3d grid and FFT values/proc = 554040 378675
  generated 45 of 45 mixed pair_coeff terms from arithmetic mixing rule
Per MPI rank memory allocation (min/avg/max) = 24.35 | 35.11 | 63.71 Mbytes
Step v_ftemp PotEng f_swp[1] f_swp[2] 
   27216         2613   -786125.68            0            0 
   27300         2613   -786122.23           84            1 
   27400         2613   -786123.95          184            6 
   27500         2613   -786125.02          284            7 
   27600         2613   -786116.43          384            8 
   27700         2613   -786114.62          484           11 
   27800         2613   -786114.26          584           16 
   27900         2613   -786125.41          684           17 
   28000         2613   -786109.73          784           20 
   28100         2613    -786117.1          884           21 
   28188         2613   -786090.35          972           25 
Loop time of 267.175 on 4 procs for 972 steps with 4311 atoms

Performance: 0.157 ns/day, 152.706 hours/ns, 3.638 timesteps/s
94.5% CPU use with 4 MPI tasks x no OpenMP threads

MPI task timing breakdown:
Section |  min time  |  avg time  |  max time  |%varavg| %total
---------------------------------------------------------------
Pair    | 2.8569     | 7.544      | 11.274     | 128.5 |  2.82
Bond    | 0.0018669  | 0.0036438  | 0.008635   |   4.8 |  0.00
Kspace  | 63.687     | 67.419     | 72.109     |  43.0 | 25.23
Neigh   | 16.558     | 16.58      | 16.614     |   0.6 |  6.21
Comm    | 0.3756     | 0.41666    | 0.44417    |   4.5 |  0.16
Output  | 0.00018999 | 0.00046243 | 0.0011123  |   0.0 |  0.00
Modify  | 175.18     | 175.19     | 175.2      |   0.1 | 65.57
Other   |            | 0.02379    |            |       |  0.01

Nlocal:        1077.75 ave        1494 max         657 min
Histogram: 1 1 0 0 0 0 0 0 1 1
Nghost:        8908.75 ave       11946 max        5684 min
Histogram: 1 1 0 0 0 0 0 0 0 2
Neighs:         536036 ave      798165 max      198523 min
Histogram: 1 0 0 1 0 0 0 0 0 2

Total # of neighbors = 2144145
Ave neighs/atom = 497.36604
Ave special neighs/atom = 0.029227557
Neighbor list builds = 1944
Dangerous builds = 0

  unfix swp
  thermo_style custom step temp pe

next temp
jump SELF minimize_temp

  variable ftemp equal v_temp

  # Electrostatic relaxation
  fix swp swpFe atom/swap 1 1 ${rand} ${temp} ke no types 6 7
  fix swp swpFe atom/swap 1 1 9343451 ${temp} ke no types 6 7
  fix swp swpFe atom/swap 1 1 9343451 2351 ke no types 6 7
  thermo 100
  thermo_style custom step v_ftemp pe f_swp[1] f_swp[2]
  run ${nsteps}
  run 972
WARNING: No fixes with time integration, atoms won't move (../verlet.cpp:60)
PPPM initialization ...
  using 12-bit tables for long-range coulomb (../kspace.cpp:340)
  G vector (1/distance) = 0.29499995
  grid = 45 45 250
  stencil order = 5
  estimated absolute RMS force accuracy = 0.00038527262
  estimated relative force accuracy = 1.160237e-06
  using double precision KISS FFT
  3d grid and FFT values/proc = 554040 378675
  generated 45 of 45 mixed pair_coeff terms from arithmetic mixing rule
Per MPI rank memory allocation (min/avg/max) = 24.35 | 35.11 | 63.71 Mbytes
Step v_ftemp PotEng f_swp[1] f_swp[2] 
   28188         2351   -786090.35            0            0 
   28200         2351   -786090.35           12            0 
   28300         2351   -786085.93          112            1 
   28400         2351   -786095.99          212            5 
   28500         2351   -786104.07          312           10 
   28600         2351    -786105.8          412           14 
   28700         2351    -786087.3          512           17 
   28800         2351   -786127.32          612           21 
   28900         2351   -786126.36          712           22 
   29000         2351   -786129.86          812           25 
   29100         2351   -786104.71          912           28 
   29160         2351   -786095.21          972           32 
Loop time of 267.008 on 4 procs for 972 steps with 4311 atoms

Performance: 0.157 ns/day, 152.611 hours/ns, 3.640 timesteps/s
94.5% CPU use with 4 MPI tasks x no OpenMP threads

MPI task timing breakdown:
Section |  min time  |  avg time  |  max time  |%varavg| %total
---------------------------------------------------------------
Pair    | 2.8065     | 7.4564     | 11.179     | 128.6 |  2.79
Bond    | 0.0019091  | 0.0035451  | 0.0081661  |   4.5 |  0.00
Kspace  | 64.41      | 68.136     | 72.787     |  42.6 | 25.52
Neigh   | 16.567     | 16.592     | 16.625     |   0.6 |  6.21
Comm    | 0.39141    | 0.4341     | 0.46363    |   4.6 |  0.16
Output  | 0.00020782 | 0.00050748 | 0.0012224  |   0.0 |  0.00
Modify  | 174.35     | 174.36     | 174.37     |   0.1 | 65.30
Other   |            | 0.02169    |            |       |  0.01

Nlocal:        1077.75 ave        1494 max         657 min
Histogram: 1 1 0 0 0 0 0 0 1 1
Nghost:        8908.75 ave       11946 max        5684 min
Histogram: 1 1 0 0 0 0 0 0 0 2
Neighs:         536036 ave      798165 max      198523 min
Histogram: 1 0 0 1 0 0 0 0 0 2

Total # of neighbors = 2144145
Ave neighs/atom = 497.36604
Ave special neighs/atom = 0.029227557
Neighbor list builds = 1944
Dangerous builds = 0

  unfix swp
  thermo_style custom step temp pe

next temp
jump SELF minimize_temp

  variable ftemp equal v_temp

  # Electrostatic relaxation
  fix swp swpFe atom/swap 1 1 ${rand} ${temp} ke no types 6 7
  fix swp swpFe atom/swap 1 1 9813187 ${temp} ke no types 6 7
  fix swp swpFe atom/swap 1 1 9813187 2115 ke no types 6 7
  thermo 100
  thermo_style custom step v_ftemp pe f_swp[1] f_swp[2]
  run ${nsteps}
  run 972
WARNING: No fixes with time integration, atoms won't move (../verlet.cpp:60)
PPPM initialization ...
  using 12-bit tables for long-range coulomb (../kspace.cpp:340)
  G vector (1/distance) = 0.29499995
  grid = 45 45 250
  stencil order = 5
  estimated absolute RMS force accuracy = 0.00038527262
  estimated relative force accuracy = 1.160237e-06
  using double precision KISS FFT
  3d grid and FFT values/proc = 554040 378675
  generated 45 of 45 mixed pair_coeff terms from arithmetic mixing rule
Per MPI rank memory allocation (min/avg/max) = 24.35 | 35.11 | 63.71 Mbytes
Step v_ftemp PotEng f_swp[1] f_swp[2] 
   29160         2115   -786095.21            0            0 
   29200         2115   -786102.08           40            1 
   29300         2115   -786107.62          140            6 
   29400         2115   -786126.47          240           10 
   29500         2115   -786129.03          340           12 
   29600         2115   -786129.03          440           12 
   29700         2115   -786129.27          540           14 
   29800         2115   -786129.27          640           14 
   29900         2115   -786129.27          740           14 
   30000         2115   -786129.27          840           14 
   30100         2115   -786130.26          940           16 
   30132         2115   -786130.26          972           16 
Loop time of 270.849 on 4 procs for 972 steps with 4311 atoms

Performance: 0.155 ns/day, 154.806 hours/ns, 3.589 timesteps/s
94.4% CPU use with 4 MPI tasks x no OpenMP threads

MPI task timing breakdown:
Section |  min time  |  avg time  |  max time  |%varavg| %total
---------------------------------------------------------------
Pair    | 2.7995     | 7.3831     | 11.036     | 127.4 |  2.73
Bond    | 0.0017897  | 0.0034013  | 0.0078896  |   4.4 |  0.00
Kspace  | 64.856     | 68.515     | 73.099     |  41.9 | 25.30
Neigh   | 16.502     | 16.528     | 16.563     |   0.6 |  6.10
Comm    | 0.40121    | 0.44768    | 0.47841    |   4.8 |  0.17
Output  | 0.00021671 | 0.00052363 | 0.0012616  |   0.0 |  0.00
Modify  | 177.94     | 177.95     | 177.96     |   0.1 | 65.70
Other   |            | 0.02384    |            |       |  0.01

Nlocal:        1077.75 ave        1494 max         657 min
Histogram: 1 1 0 0 0 0 0 0 1 1
Nghost:        8908.75 ave       11946 max        5684 min
Histogram: 1 1 0 0 0 0 0 0 0 2
Neighs:         536036 ave      798165 max      198523 min
Histogram: 1 0 0 1 0 0 0 0 0 2

Total # of neighbors = 2144145
Ave neighs/atom = 497.36604
Ave special neighs/atom = 0.029227557
Neighbor list builds = 1944
Dangerous builds = 0

  unfix swp
  thermo_style custom step temp pe

next temp
jump SELF minimize_temp

  variable ftemp equal v_temp

  # Electrostatic relaxation
  fix swp swpFe atom/swap 1 1 ${rand} ${temp} ke no types 6 7
  fix swp swpFe atom/swap 1 1 3669492 ${temp} ke no types 6 7
  fix swp swpFe atom/swap 1 1 3669492 1903 ke no types 6 7
  thermo 100
  thermo_style custom step v_ftemp pe f_swp[1] f_swp[2]
  run ${nsteps}
  run 972
WARNING: No fixes with time integration, atoms won't move (../verlet.cpp:60)
PPPM initialization ...
  using 12-bit tables for long-range coulomb (../kspace.cpp:340)
  G vector (1/distance) = 0.29499995
  grid = 45 45 250
  stencil order = 5
  estimated absolute RMS force accuracy = 0.00038527262
  estimated relative force accuracy = 1.160237e-06
  using double precision KISS FFT
  3d grid and FFT values/proc = 554040 378675
  generated 45 of 45 mixed pair_coeff terms from arithmetic mixing rule
Per MPI rank memory allocation (min/avg/max) = 24.35 | 35.11 | 63.71 Mbytes
Step v_ftemp PotEng f_swp[1] f_swp[2] 
   30132         1903   -786130.26            0            0 
   30200         1903   -786130.26           68            0 
   30300         1903   -786130.26          168            0 
   30400         1903   -786133.12          268            2 
   30500         1903   -786132.28          368            4 
   30600         1903   -786131.78          468            5 
   30700         1903   -786123.83          568            6 
   30800         1903   -786123.83          668            6 
   30900         1903   -786122.12          768           10 
   31000         1903    -786124.3          868           11 
   31100         1903   -786120.55          968           13 
   31104         1903   -786120.55          972           13 
Loop time of 266.71 on 4 procs for 972 steps with 4311 atoms

Performance: 0.157 ns/day, 152.440 hours/ns, 3.644 timesteps/s
94.4% CPU use with 4 MPI tasks x no OpenMP threads

MPI task timing breakdown:
Section |  min time  |  avg time  |  max time  |%varavg| %total
---------------------------------------------------------------
Pair    | 2.8814     | 7.5768     | 11.33      | 129.0 |  2.84
Bond    | 0.0019434  | 0.0039425  | 0.0093638  |   5.0 |  0.00
Kspace  | 63.458     | 67.216     | 71.913     |  43.3 | 25.20
Neigh   | 16.611     | 16.635     | 16.668     |   0.6 |  6.24
Comm    | 0.3812     | 0.42402    | 0.45239    |   4.6 |  0.16
Output  | 0.00020299 | 0.00048107 | 0.0011556  |   0.0 |  0.00
Modify  | 174.82     | 174.83     | 174.84     |   0.1 | 65.55
Other   |            | 0.02582    |            |       |  0.01

Nlocal:        1077.75 ave        1494 max         657 min
Histogram: 1 1 0 0 0 0 0 0 1 1
Nghost:        8908.75 ave       11946 max        5684 min
Histogram: 1 1 0 0 0 0 0 0 0 2
Neighs:         536036 ave      798165 max      198523 min
Histogram: 1 0 0 1 0 0 0 0 0 2

Total # of neighbors = 2144145
Ave neighs/atom = 497.36604
Ave special neighs/atom = 0.029227557
Neighbor list builds = 1944
Dangerous builds = 0

  unfix swp
  thermo_style custom step temp pe

next temp
jump SELF minimize_temp

  variable ftemp equal v_temp

  # Electrostatic relaxation
  fix swp swpFe atom/swap 1 1 ${rand} ${temp} ke no types 6 7
  fix swp swpFe atom/swap 1 1 4337234 ${temp} ke no types 6 7
  fix swp swpFe atom/swap 1 1 4337234 1712 ke no types 6 7
  thermo 100
  thermo_style custom step v_ftemp pe f_swp[1] f_swp[2]
  run ${nsteps}
  run 972
WARNING: No fixes with time integration, atoms won't move (../verlet.cpp:60)
PPPM initialization ...
  using 12-bit tables for long-range coulomb (../kspace.cpp:340)
  G vector (1/distance) = 0.29499995
  grid = 45 45 250
  stencil order = 5
  estimated absolute RMS force accuracy = 0.00038527262
  estimated relative force accuracy = 1.160237e-06
  using double precision KISS FFT
  3d grid and FFT values/proc = 554040 378675
  generated 45 of 45 mixed pair_coeff terms from arithmetic mixing rule
Per MPI rank memory allocation (min/avg/max) = 24.35 | 35.11 | 63.71 Mbytes
Step v_ftemp PotEng f_swp[1] f_swp[2] 
   31104         1712   -786120.55            0            0 
   31200         1712   -786124.87           96            3 
   31300         1712   -786126.93          196            4 
   31400         1712   -786130.78          296            6 
   31500         1712   -786134.96          396            8 
   31600         1712   -786134.96          496            8 
   31700         1712   -786134.96          596            8 
   31800         1712   -786134.96          696            8 
   31900         1712   -786134.96          796            8 
   32000         1712   -786134.96          896            8 
   32076         1712   -786134.96          972            8 
Loop time of 270.571 on 4 procs for 972 steps with 4311 atoms

Performance: 0.155 ns/day, 154.647 hours/ns, 3.592 timesteps/s
94.3% CPU use with 4 MPI tasks x no OpenMP threads

MPI task timing breakdown:
Section |  min time  |  avg time  |  max time  |%varavg| %total
---------------------------------------------------------------
Pair    | 2.8155     | 7.4276     | 11.125     | 128.0 |  2.75
Bond    | 0.0017899  | 0.0034772  | 0.0078919  |   4.3 |  0.00
Kspace  | 65.174     | 68.876     | 73.489     |  42.1 | 25.46
Neigh   | 16.511     | 16.536     | 16.57      |   0.6 |  6.11
Comm    | 0.39721    | 0.44062    | 0.46948    |   4.6 |  0.16
Output  | 0.00018295 | 0.00044915 | 0.0010886  |   0.0 |  0.00
Modify  | 177.25     | 177.26     | 177.27     |   0.1 | 65.51
Other   |            | 0.02307    |            |       |  0.01

Nlocal:        1077.75 ave        1494 max         657 min
Histogram: 1 1 0 0 0 0 0 0 1 1
Nghost:        8908.75 ave       11946 max        5684 min
Histogram: 1 1 0 0 0 0 0 0 0 2
Neighs:         536036 ave      798165 max      198523 min
Histogram: 1 0 0 1 0 0 0 0 0 2

Total # of neighbors = 2144145
Ave neighs/atom = 497.36604
Ave special neighs/atom = 0.029227557
Neighbor list builds = 1944
Dangerous builds = 0

  unfix swp
  thermo_style custom step temp pe

next temp
jump SELF minimize_temp

  variable ftemp equal v_temp

  # Electrostatic relaxation
  fix swp swpFe atom/swap 1 1 ${rand} ${temp} ke no types 6 7
  fix swp swpFe atom/swap 1 1 8737738 ${temp} ke no types 6 7
  fix swp swpFe atom/swap 1 1 8737738 1540 ke no types 6 7
  thermo 100
  thermo_style custom step v_ftemp pe f_swp[1] f_swp[2]
  run ${nsteps}
  run 972
WARNING: No fixes with time integration, atoms won't move (../verlet.cpp:60)
PPPM initialization ...
  using 12-bit tables for long-range coulomb (../kspace.cpp:340)
  G vector (1/distance) = 0.29499995
  grid = 45 45 250
  stencil order = 5
  estimated absolute RMS force accuracy = 0.00038527262
  estimated relative force accuracy = 1.160237e-06
  using double precision KISS FFT
  3d grid and FFT values/proc = 554040 378675
  generated 45 of 45 mixed pair_coeff terms from arithmetic mixing rule
Per MPI rank memory allocation (min/avg/max) = 24.35 | 35.11 | 63.71 Mbytes
Step v_ftemp PotEng f_swp[1] f_swp[2] 
   32076         1540   -786134.96            0            0 
   32100         1540   -786133.24           24            2 
   32200         1540   -786133.24          124            2 
   32300         1540   -786133.24          224            2 
   32400         1540   -786128.99          324            5 
   32500         1540    -786133.5          424            6 
   32600         1540   -786133.38          524            7 
   32700         1540   -786133.38          624            9 
   32800         1540   -786124.18          724           10 
   32900         1540   -786131.36          824           14 
   33000         1540   -786127.71          924           16 
   33048         1540   -786132.96          972           17 
Loop time of 271.926 on 4 procs for 972 steps with 4311 atoms

Performance: 0.154 ns/day, 155.422 hours/ns, 3.575 timesteps/s
94.5% CPU use with 4 MPI tasks x no OpenMP threads

MPI task timing breakdown:
Section |  min time  |  avg time  |  max time  |%varavg| %total
---------------------------------------------------------------
Pair    | 2.7806     | 7.3175     | 10.881     | 126.8 |  2.69
Bond    | 0.0015745  | 0.0030974  | 0.007267   |   4.3 |  0.00
Kspace  | 65.455     | 69.023     | 73.561     |  41.3 | 25.38
Neigh   | 16.543     | 16.569     | 16.604     |   0.6 |  6.09
Comm    | 0.4167     | 0.46429    | 0.49554    |   4.9 |  0.17
Output  | 0.00020934 | 0.0005148  | 0.0012347  |   0.0 |  0.00
Modify  | 178.51     | 178.52     | 178.54     |   0.1 | 65.65
Other   |            | 0.02387    |            |       |  0.01

Nlocal:        1077.75 ave        1494 max         657 min
Histogram: 1 1 0 0 0 0 0 0 1 1
Nghost:        8908.75 ave       11946 max        5684 min
Histogram: 1 1 0 0 0 0 0 0 0 2
Neighs:         536036 ave      798165 max      198523 min
Histogram: 1 0 0 1 0 0 0 0 0 2

Total # of neighbors = 2144145
Ave neighs/atom = 497.36604
Ave special neighs/atom = 0.029227557
Neighbor list builds = 1944
Dangerous builds = 0

  unfix swp
  thermo_style custom step temp pe

next temp
jump SELF minimize_temp

  variable ftemp equal v_temp

  # Electrostatic relaxation
  fix swp swpFe atom/swap 1 1 ${rand} ${temp} ke no types 6 7
  fix swp swpFe atom/swap 1 1 9296387 ${temp} ke no types 6 7
  fix swp swpFe atom/swap 1 1 9296387 1386 ke no types 6 7
  thermo 100
  thermo_style custom step v_ftemp pe f_swp[1] f_swp[2]
  run ${nsteps}
  run 972
WARNING: No fixes with time integration, atoms won't move (../verlet.cpp:60)
PPPM initialization ...
  using 12-bit tables for long-range coulomb (../kspace.cpp:340)
  G vector (1/distance) = 0.29499995
  grid = 45 45 250
  stencil order = 5
  estimated absolute RMS force accuracy = 0.00038527262
  estimated relative force accuracy = 1.160237e-06
  using double precision KISS FFT
  3d grid and FFT values/proc = 554040 378675
  generated 45 of 45 mixed pair_coeff terms from arithmetic mixing rule
Per MPI rank memory allocation (min/avg/max) = 24.35 | 35.11 | 63.71 Mbytes
Step v_ftemp PotEng f_swp[1] f_swp[2] 
   33048         1386   -786132.96            0            0 
   33100         1386   -786132.96           52            0 
   33200         1386   -786120.56          152            3 
   33300         1386   -786126.46          252            4 
   33400         1386   -786126.46          352            4 
   33500         1386   -786130.91          452            5 
   33600         1386   -786130.91          552            5 
   33700         1386   -786132.65          652            6 
   33800         1386   -786118.57          752            8 
   33900         1386   -786124.82          852            9 
   34000         1386   -786124.82          952            9 
   34020         1386   -786124.82          972            9 
Loop time of 269.337 on 4 procs for 972 steps with 4311 atoms

Performance: 0.156 ns/day, 153.942 hours/ns, 3.609 timesteps/s
94.6% CPU use with 4 MPI tasks x no OpenMP threads

MPI task timing breakdown:
Section |  min time  |  avg time  |  max time  |%varavg| %total
---------------------------------------------------------------
Pair    | 2.8011     | 7.3479     | 10.971     | 126.7 |  2.73
Bond    | 0.0013837  | 0.0031364  | 0.0073923  |   4.4 |  0.00
Kspace  | 65.466     | 69.094     | 73.642     |  41.3 | 25.65
Neigh   | 16.535     | 16.56      | 16.596     |   0.6 |  6.15
Comm    | 0.40355    | 0.45007    | 0.48014    |   4.8 |  0.17
Output  | 0.00021705 | 0.00059162 | 0.0015638  |   0.0 |  0.00
Modify  | 175.85     | 175.86     | 175.87     |   0.1 | 65.29
Other   |            | 0.02266    |            |       |  0.01

Nlocal:        1077.75 ave        1494 max         657 min
Histogram: 1 1 0 0 0 0 0 0 1 1
Nghost:        8908.75 ave       11946 max        5684 min
Histogram: 1 1 0 0 0 0 0 0 0 2
Neighs:         536036 ave      798165 max      198523 min
Histogram: 1 0 0 1 0 0 0 0 0 2

Total # of neighbors = 2144145
Ave neighs/atom = 497.36604
Ave special neighs/atom = 0.029227557
Neighbor list builds = 1944
Dangerous builds = 0

  unfix swp
  thermo_style custom step temp pe

next temp
jump SELF minimize_temp

  variable ftemp equal v_temp

  # Electrostatic relaxation
  fix swp swpFe atom/swap 1 1 ${rand} ${temp} ke no types 6 7
  fix swp swpFe atom/swap 1 1 9088774 ${temp} ke no types 6 7
  fix swp swpFe atom/swap 1 1 9088774 1247 ke no types 6 7
  thermo 100
  thermo_style custom step v_ftemp pe f_swp[1] f_swp[2]
  run ${nsteps}
  run 972
WARNING: No fixes with time integration, atoms won't move (../verlet.cpp:60)
PPPM initialization ...
  using 12-bit tables for long-range coulomb (../kspace.cpp:340)
  G vector (1/distance) = 0.29499995
  grid = 45 45 250
  stencil order = 5
  estimated absolute RMS force accuracy = 0.00038527262
  estimated relative force accuracy = 1.160237e-06
  using double precision KISS FFT
  3d grid and FFT values/proc = 554040 378675
  generated 45 of 45 mixed pair_coeff terms from arithmetic mixing rule
Per MPI rank memory allocation (min/avg/max) = 24.35 | 35.11 | 63.71 Mbytes
Step v_ftemp PotEng f_swp[1] f_swp[2] 
   34020         1247   -786124.82            0            0 
   34100         1247   -786124.67           80            4 
   34200         1247   -786131.14          180            6 
   34300         1247   -786134.86          280            7 
   34400         1247   -786132.21          380            8 
   34500         1247   -786132.21          480            8 
   34600         1247   -786139.14          580            9 
   34700         1247   -786139.14          680            9 
   34800         1247   -786136.96          780           10 
   34900         1247   -786136.96          880           10 
   34992         1247   -786136.96          972           10 
Loop time of 271.242 on 4 procs for 972 steps with 4311 atoms

Performance: 0.155 ns/day, 155.031 hours/ns, 3.584 timesteps/s
94.3% CPU use with 4 MPI tasks x no OpenMP threads

MPI task timing breakdown:
Section |  min time  |  avg time  |  max time  |%varavg| %total
---------------------------------------------------------------
Pair    | 2.7882     | 7.4086     | 11.043     | 128.0 |  2.73
Bond    | 0.0018472  | 0.0034701  | 0.0076678  |   4.1 |  0.00
Kspace  | 65.386     | 69.024     | 73.645     |  42.0 | 25.45
Neigh   | 16.483     | 16.508     | 16.542     |   0.6 |  6.09
Comm    | 0.3943     | 0.43846    | 0.46772    |   4.7 |  0.16
Output  | 0.00018291 | 0.00046433 | 0.0011518  |   0.0 |  0.00
Modify  | 177.83     | 177.84     | 177.85     |   0.1 | 65.56
Other   |            | 0.02255    |            |       |  0.01

Nlocal:        1077.75 ave        1494 max         657 min
Histogram: 1 1 0 0 0 0 0 0 1 1
Nghost:        8908.75 ave       11946 max        5684 min
Histogram: 1 1 0 0 0 0 0 0 0 2
Neighs:         536036 ave      798165 max      198523 min
Histogram: 1 0 0 1 0 0 0 0 0 2

Total # of neighbors = 2144145
Ave neighs/atom = 497.36604
Ave special neighs/atom = 0.029227557
Neighbor list builds = 1944
Dangerous builds = 0

  unfix swp
  thermo_style custom step temp pe

next temp
jump SELF minimize_temp

  variable ftemp equal v_temp

  # Electrostatic relaxation
  fix swp swpFe atom/swap 1 1 ${rand} ${temp} ke no types 6 7
  fix swp swpFe atom/swap 1 1 5675456 ${temp} ke no types 6 7
  fix swp swpFe atom/swap 1 1 5675456 1122 ke no types 6 7
  thermo 100
  thermo_style custom step v_ftemp pe f_swp[1] f_swp[2]
  run ${nsteps}
  run 972
WARNING: No fixes with time integration, atoms won't move (../verlet.cpp:60)
PPPM initialization ...
  using 12-bit tables for long-range coulomb (../kspace.cpp:340)
  G vector (1/distance) = 0.29499995
  grid = 45 45 250
  stencil order = 5
  estimated absolute RMS force accuracy = 0.00038527262
  estimated relative force accuracy = 1.160237e-06
  using double precision KISS FFT
  3d grid and FFT values/proc = 554040 378675
  generated 45 of 45 mixed pair_coeff terms from arithmetic mixing rule
Per MPI rank memory allocation (min/avg/max) = 24.35 | 35.11 | 63.71 Mbytes
Step v_ftemp PotEng f_swp[1] f_swp[2] 
   34992         1122   -786136.96            0            0 
   35000         1122   -786136.96            8            0 
   35100         1122   -786136.96          108            0 
   35200         1122   -786130.98          208            2 
   35300         1122   -786134.42          308            5 
   35400         1122   -786134.42          408            5 
   35500         1122    -786128.2          508            6 
   35600         1122   -786127.51          608            8 
   35700         1122   -786127.51          708            8 
   35800         1122   -786133.35          808            9 
   35900         1122   -786133.35          908            9 
   35964         1122   -786133.35          972            9 
Loop time of 269.899 on 4 procs for 972 steps with 4311 atoms

Performance: 0.156 ns/day, 154.263 hours/ns, 3.601 timesteps/s
94.4% CPU use with 4 MPI tasks x no OpenMP threads

MPI task timing breakdown:
Section |  min time  |  avg time  |  max time  |%varavg| %total
---------------------------------------------------------------
Pair    | 2.8293     | 7.4026     | 11.044     | 126.6 |  2.74
Bond    | 0.0015235  | 0.0033245  | 0.0079842  |   4.7 |  0.00
Kspace  | 64.933     | 68.579     | 73.153     |  41.6 | 25.41
Neigh   | 16.507     | 16.533     | 16.568     |   0.6 |  6.13
Comm    | 0.40935    | 0.45583    | 0.48654    |   4.8 |  0.17
Output  | 0.00031979 | 0.0005507  | 0.001084   |   0.0 |  0.00
Modify  | 176.89     | 176.9      | 176.91     |   0.1 | 65.54
Other   |            | 0.02273    |            |       |  0.01

Nlocal:        1077.75 ave        1494 max         657 min
Histogram: 1 1 0 0 0 0 0 0 1 1
Nghost:        8908.75 ave       11946 max        5684 min
Histogram: 1 1 0 0 0 0 0 0 0 2
Neighs:         536036 ave      798165 max      198523 min
Histogram: 1 0 0 1 0 0 0 0 0 2

Total # of neighbors = 2144145
Ave neighs/atom = 497.36604
Ave special neighs/atom = 0.029227557
Neighbor list builds = 1944
Dangerous builds = 0

  unfix swp
  thermo_style custom step temp pe

next temp
jump SELF minimize_temp

  variable ftemp equal v_temp

  # Electrostatic relaxation
  fix swp swpFe atom/swap 1 1 ${rand} ${temp} ke no types 6 7
  fix swp swpFe atom/swap 1 1 129625 ${temp} ke no types 6 7
  fix swp swpFe atom/swap 1 1 129625 1009 ke no types 6 7
  thermo 100
  thermo_style custom step v_ftemp pe f_swp[1] f_swp[2]
  run ${nsteps}
  run 972
WARNING: No fixes with time integration, atoms won't move (../verlet.cpp:60)
PPPM initialization ...
  using 12-bit tables for long-range coulomb (../kspace.cpp:340)
  G vector (1/distance) = 0.29499995
  grid = 45 45 250
  stencil order = 5
  estimated absolute RMS force accuracy = 0.00038527262
  estimated relative force accuracy = 1.160237e-06
  using double precision KISS FFT
  3d grid and FFT values/proc = 554040 378675
  generated 45 of 45 mixed pair_coeff terms from arithmetic mixing rule
Per MPI rank memory allocation (min/avg/max) = 24.35 | 35.11 | 63.71 Mbytes
Step v_ftemp PotEng f_swp[1] f_swp[2] 
   35964         1009   -786133.35            0            0 
   36000         1009   -786133.35           36            0 
   36100         1009   -786133.35          136            0 
   36200         1009   -786133.66          236            1 
   36300         1009   -786127.51          336            4 
   36400         1009   -786127.51          436            4 
   36500         1009   -786133.13          536            5 
   36600         1009   -786133.13          636            5 
   36700         1009   -786125.23          736            6 
   36800         1009   -786126.89          836            8 
   36900         1009   -786133.64          936           10 
   36936         1009   -786134.51          972           11 
Loop time of 268.042 on 4 procs for 972 steps with 4311 atoms

Performance: 0.157 ns/day, 153.202 hours/ns, 3.626 timesteps/s
94.7% CPU use with 4 MPI tasks x no OpenMP threads

MPI task timing breakdown:
Section |  min time  |  avg time  |  max time  |%varavg| %total
---------------------------------------------------------------
Pair    | 2.8404     | 7.4338     | 11.014     | 126.7 |  2.77
Bond    | 0.0015209  | 0.0033409  | 0.0082608  |   4.9 |  0.00
Kspace  | 64.126     | 67.712     | 72.306     |  42.0 | 25.26
Neigh   | 16.545     | 16.572     | 16.609     |   0.6 |  6.18
Comm    | 0.41368    | 0.46286    | 0.49466    |   5.0 |  0.17
Output  | 0.0002042  | 0.00049324 | 0.0011935  |   0.0 |  0.00
Modify  | 175.82     | 175.83     | 175.84     |   0.1 | 65.60
Other   |            | 0.02594    |            |       |  0.01

Nlocal:        1077.75 ave        1494 max         657 min
Histogram: 1 1 0 0 0 0 0 0 1 1
Nghost:        8908.75 ave       11946 max        5684 min
Histogram: 1 1 0 0 0 0 0 0 0 2
Neighs:         536036 ave      798165 max      198523 min
Histogram: 1 0 0 1 0 0 0 0 0 2

Total # of neighbors = 2144145
Ave neighs/atom = 497.36604
Ave special neighs/atom = 0.029227557
Neighbor list builds = 1944
Dangerous builds = 0

  unfix swp
  thermo_style custom step temp pe

next temp
jump SELF minimize_temp

  variable ftemp equal v_temp

  # Electrostatic relaxation
  fix swp swpFe atom/swap 1 1 ${rand} ${temp} ke no types 6 7
  fix swp swpFe atom/swap 1 1 6411397 ${temp} ke no types 6 7
  fix swp swpFe atom/swap 1 1 6411397 908 ke no types 6 7
  thermo 100
  thermo_style custom step v_ftemp pe f_swp[1] f_swp[2]
  run ${nsteps}
  run 972
WARNING: No fixes with time integration, atoms won't move (../verlet.cpp:60)
PPPM initialization ...
  using 12-bit tables for long-range coulomb (../kspace.cpp:340)
  G vector (1/distance) = 0.29499995
  grid = 45 45 250
  stencil order = 5
  estimated absolute RMS force accuracy = 0.00038527262
  estimated relative force accuracy = 1.160237e-06
  using double precision KISS FFT
  3d grid and FFT values/proc = 554040 378675
  generated 45 of 45 mixed pair_coeff terms from arithmetic mixing rule
Per MPI rank memory allocation (min/avg/max) = 24.35 | 35.11 | 63.71 Mbytes
Step v_ftemp PotEng f_swp[1] f_swp[2] 
   36936          908   -786134.51            0            0 
   37000          908   -786134.51           64            0 
   37100          908   -786134.51          164            0 
   37200          908   -786134.51          264            0 
   37300          908   -786130.16          364            2 
   37400          908   -786130.77          464            3 
   37500          908   -786129.26          564            4 
   37600          908   -786129.26          664            4 
   37700          908   -786134.94          764            6 
   37800          908   -786134.94          864            6 
   37900          908   -786137.54          964            7 
   37908          908   -786137.54          972            7 
Loop time of 271.67 on 4 procs for 972 steps with 4311 atoms

Performance: 0.155 ns/day, 155.276 hours/ns, 3.578 timesteps/s
94.6% CPU use with 4 MPI tasks x no OpenMP threads

MPI task timing breakdown:
Section |  min time  |  avg time  |  max time  |%varavg| %total
---------------------------------------------------------------
Pair    | 2.7765     | 7.2996     | 10.849     | 126.2 |  2.69
Bond    | 0.0014238  | 0.0029492  | 0.0072901  |   4.6 |  0.00
Kspace  | 65.198     | 68.753     | 73.277     |  41.2 | 25.31
Neigh   | 16.586     | 16.612     | 16.649     |   0.6 |  6.11
Comm    | 0.42391    | 0.473      | 0.5046     |   4.9 |  0.17
Output  | 0.00022315 | 0.00051594 | 0.0012263  |   0.0 |  0.00
Modify  | 178.49     | 178.5      | 178.52     |   0.1 | 65.71
Other   |            | 0.02458    |            |       |  0.01

Nlocal:        1077.75 ave        1494 max         657 min
Histogram: 1 1 0 0 0 0 0 0 1 1
Nghost:        8908.75 ave       11946 max        5684 min
Histogram: 1 1 0 0 0 0 0 0 0 2
Neighs:         536036 ave      798165 max      198523 min
Histogram: 1 0 0 1 0 0 0 0 0 2

Total # of neighbors = 2144145
Ave neighs/atom = 497.36604
Ave special neighs/atom = 0.029227557
Neighbor list builds = 1944
Dangerous builds = 0

  unfix swp
  thermo_style custom step temp pe

next temp
jump SELF minimize_temp

  variable ftemp equal v_temp

  # Electrostatic relaxation
  fix swp swpFe atom/swap 1 1 ${rand} ${temp} ke no types 6 7
  fix swp swpFe atom/swap 1 1 3177600 ${temp} ke no types 6 7
  fix swp swpFe atom/swap 1 1 3177600 817 ke no types 6 7
  thermo 100
  thermo_style custom step v_ftemp pe f_swp[1] f_swp[2]
  run ${nsteps}
  run 972
WARNING: No fixes with time integration, atoms won't move (../verlet.cpp:60)
PPPM initialization ...
  using 12-bit tables for long-range coulomb (../kspace.cpp:340)
  G vector (1/distance) = 0.29499995
  grid = 45 45 250
  stencil order = 5
  estimated absolute RMS force accuracy = 0.00038527262
  estimated relative force accuracy = 1.160237e-06
  using double precision KISS FFT
  3d grid and FFT values/proc = 554040 378675
  generated 45 of 45 mixed pair_coeff terms from arithmetic mixing rule
Per MPI rank memory allocation (min/avg/max) = 24.35 | 35.11 | 63.71 Mbytes
Step v_ftemp PotEng f_swp[1] f_swp[2] 
   37908          817   -786137.54            0            0 
   38000          817   -786137.54           92            0 
   38100          817   -786137.54          192            0 
   38200          817   -786137.54          292            0 
   38300          817   -786135.33          392            2 
   38400          817   -786135.33          492            2 
   38500          817   -786135.33          592            2 
   38600          817   -786136.14          692            3 
   38700          817   -786136.14          792            3 
   38800          817   -786136.14          892            3 
   38880          817   -786136.14          972            3 
Loop time of 266.753 on 4 procs for 972 steps with 4311 atoms

Performance: 0.157 ns/day, 152.465 hours/ns, 3.644 timesteps/s
94.4% CPU use with 4 MPI tasks x no OpenMP threads

MPI task timing breakdown:
Section |  min time  |  avg time  |  max time  |%varavg| %total
---------------------------------------------------------------
Pair    | 2.8849     | 7.5932     | 11.362     | 129.1 |  2.85
Bond    | 0.0018472  | 0.0038145  | 0.0087043  |   4.6 |  0.00
Kspace  | 63.647     | 67.42      | 72.13      |  43.4 | 25.27
Neigh   | 16.575     | 16.605     | 16.643     |   0.6 |  6.22
Comm    | 0.3861     | 0.4353     | 0.46938    |   4.9 |  0.16
Output  | 0.00018131 | 0.00052848 | 0.0014218  |   0.0 |  0.00
Modify  | 174.66     | 174.67     | 174.68     |   0.1 | 65.48
Other   |            | 0.02516    |            |       |  0.01

Nlocal:        1077.75 ave        1494 max         657 min
Histogram: 1 1 0 0 0 0 0 0 1 1
Nghost:        8908.75 ave       11946 max        5684 min
Histogram: 1 1 0 0 0 0 0 0 0 2
Neighs:         536036 ave      798165 max      198523 min
Histogram: 1 0 0 1 0 0 0 0 0 2

Total # of neighbors = 2144145
Ave neighs/atom = 497.36604
Ave special neighs/atom = 0.029227557
Neighbor list builds = 1944
Dangerous builds = 0

  unfix swp
  thermo_style custom step temp pe

next temp
jump SELF minimize_temp

  variable ftemp equal v_temp

  # Electrostatic relaxation
  fix swp swpFe atom/swap 1 1 ${rand} ${temp} ke no types 6 7
  fix swp swpFe atom/swap 1 1 8668979 ${temp} ke no types 6 7
  fix swp swpFe atom/swap 1 1 8668979 735 ke no types 6 7
  thermo 100
  thermo_style custom step v_ftemp pe f_swp[1] f_swp[2]
  run ${nsteps}
  run 972
WARNING: No fixes with time integration, atoms won't move (../verlet.cpp:60)
PPPM initialization ...
  using 12-bit tables for long-range coulomb (../kspace.cpp:340)
  G vector (1/distance) = 0.29499995
  grid = 45 45 250
  stencil order = 5
  estimated absolute RMS force accuracy = 0.00038527262
  estimated relative force accuracy = 1.160237e-06
  using double precision KISS FFT
  3d grid and FFT values/proc = 554040 378675
  generated 45 of 45 mixed pair_coeff terms from arithmetic mixing rule
Per MPI rank memory allocation (min/avg/max) = 24.35 | 35.11 | 63.71 Mbytes
Step v_ftemp PotEng f_swp[1] f_swp[2] 
   38880          735   -786136.14            0            0 
   38900          735   -786136.14           20            0 
   39000          735   -786136.14          120            0 
   39100          735   -786136.14          220            0 
   39200          735   -786136.14          320            0 
   39300          735   -786136.14          420            0 
   39400          735   -786136.14          520            0 
   39500          735   -786135.53          620            1 
   39600          735   -786135.53          720            1 
   39700          735    -786137.8          820            2 
   39800          735    -786137.8          920            2 
   39852          735    -786137.8          972            2 
Loop time of 271.131 on 4 procs for 972 steps with 4311 atoms

Performance: 0.155 ns/day, 154.968 hours/ns, 3.585 timesteps/s
94.4% CPU use with 4 MPI tasks x no OpenMP threads

MPI task timing breakdown:
Section |  min time  |  avg time  |  max time  |%varavg| %total
---------------------------------------------------------------
Pair    | 2.8302     | 7.4582     | 11.028     | 128.2 |  2.75
Bond    | 0.001533   | 0.0032925  | 0.0077132  |   4.5 |  0.00
Kspace  | 65.453     | 69.027     | 73.656     |  42.2 | 25.46
Neigh   | 16.501     | 16.527     | 16.563     |   0.6 |  6.10
Comm    | 0.4084     | 0.45675    | 0.48845    |   4.9 |  0.17
Output  | 0.00020502 | 0.00050416 | 0.0012487  |   0.0 |  0.00
Modify  | 177.63     | 177.64     | 177.65     |   0.1 | 65.52
Other   |            | 0.0233     |            |       |  0.01

Nlocal:        1077.75 ave        1494 max         657 min
Histogram: 1 1 0 0 0 0 0 0 1 1
Nghost:        8908.75 ave       11946 max        5684 min
Histogram: 1 1 0 0 0 0 0 0 0 2
Neighs:         536036 ave      798165 max      198523 min
Histogram: 1 0 0 1 0 0 0 0 0 2

Total # of neighbors = 2144145
Ave neighs/atom = 497.36604
Ave special neighs/atom = 0.029227557
Neighbor list builds = 1944
Dangerous builds = 0

  unfix swp
  thermo_style custom step temp pe

next temp
jump SELF minimize_temp

  variable ftemp equal v_temp

  # Electrostatic relaxation
  fix swp swpFe atom/swap 1 1 ${rand} ${temp} ke no types 6 7
  fix swp swpFe atom/swap 1 1 3076370 ${temp} ke no types 6 7
  fix swp swpFe atom/swap 1 1 3076370 661 ke no types 6 7
  thermo 100
  thermo_style custom step v_ftemp pe f_swp[1] f_swp[2]
  run ${nsteps}
  run 972
WARNING: No fixes with time integration, atoms won't move (../verlet.cpp:60)
PPPM initialization ...
  using 12-bit tables for long-range coulomb (../kspace.cpp:340)
  G vector (1/distance) = 0.29499995
  grid = 45 45 250
  stencil order = 5
  estimated absolute RMS force accuracy = 0.00038527262
  estimated relative force accuracy = 1.160237e-06
  using double precision KISS FFT
  3d grid and FFT values/proc = 554040 378675
  generated 45 of 45 mixed pair_coeff terms from arithmetic mixing rule
Per MPI rank memory allocation (min/avg/max) = 24.35 | 35.11 | 63.71 Mbytes
Step v_ftemp PotEng f_swp[1] f_swp[2] 
   39852          661    -786137.8            0            0 
   39900          661    -786137.8           48            0 
   40000          661    -786137.8          148            0 
   40100          661    -786137.8          248            0 
   40200          661   -786137.81          348            1 
   40300          661   -786134.68          448            2 
   40400          661   -786134.68          548            2 
   40500          661   -786134.68          648            2 
   40600          661   -786134.68          748            2 
   40700          661   -786134.68          848            2 
   40800          661   -786134.68          948            2 
   40824          661   -786134.68          972            2 
Loop time of 270.762 on 4 procs for 972 steps with 4311 atoms

Performance: 0.155 ns/day, 154.757 hours/ns, 3.590 timesteps/s
94.3% CPU use with 4 MPI tasks x no OpenMP threads

MPI task timing breakdown:
Section |  min time  |  avg time  |  max time  |%varavg| %total
---------------------------------------------------------------
Pair    | 2.8048     | 7.4285     | 11.106     | 128.1 |  2.74
Bond    | 0.0016946  | 0.0032923  | 0.0077725  |   4.5 |  0.00
Kspace  | 65.089     | 68.774     | 73.397     |  42.2 | 25.40
Neigh   | 16.577     | 16.602     | 16.636     |   0.6 |  6.13
Comm    | 0.40253    | 0.45524    | 0.48972    |   5.2 |  0.17
Output  | 0.00021257 | 0.00059485 | 0.0015794  |   0.0 |  0.00
Modify  | 177.46     | 177.47     | 177.49     |   0.1 | 65.55
Other   |            | 0.02424    |            |       |  0.01

Nlocal:        1077.75 ave        1494 max         657 min
Histogram: 1 1 0 0 0 0 0 0 1 1
Nghost:        8908.75 ave       11946 max        5684 min
Histogram: 1 1 0 0 0 0 0 0 0 2
Neighs:         536036 ave      798165 max      198523 min
Histogram: 1 0 0 1 0 0 0 0 0 2

Total # of neighbors = 2144145
Ave neighs/atom = 497.36604
Ave special neighs/atom = 0.029227557
Neighbor list builds = 1944
Dangerous builds = 0

  unfix swp
  thermo_style custom step temp pe

next temp
jump SELF minimize_temp

  variable ftemp equal v_temp

  # Electrostatic relaxation
  fix swp swpFe atom/swap 1 1 ${rand} ${temp} ke no types 6 7
  fix swp swpFe atom/swap 1 1 7996883 ${temp} ke no types 6 7
  fix swp swpFe atom/swap 1 1 7996883 594 ke no types 6 7
  thermo 100
  thermo_style custom step v_ftemp pe f_swp[1] f_swp[2]
  run ${nsteps}
  run 972
WARNING: No fixes with time integration, atoms won't move (../verlet.cpp:60)
PPPM initialization ...
  using 12-bit tables for long-range coulomb (../kspace.cpp:340)
  G vector (1/distance) = 0.29499995
  grid = 45 45 250
  stencil order = 5
  estimated absolute RMS force accuracy = 0.00038527262
  estimated relative force accuracy = 1.160237e-06
  using double precision KISS FFT
  3d grid and FFT values/proc = 554040 378675
  generated 45 of 45 mixed pair_coeff terms from arithmetic mixing rule
Per MPI rank memory allocation (min/avg/max) = 24.35 | 35.11 | 63.71 Mbytes
Step v_ftemp PotEng f_swp[1] f_swp[2] 
   40824          594   -786134.68            0            0 
   40900          594   -786134.68           76            0 
   41000          594   -786134.68          176            0 
   41100          594   -786135.99          276            1 
   41200          594   -786137.44          376            2 
   41300          594   -786137.44          476            2 
   41400          594   -786137.44          576            2 
   41500          594   -786139.21          676            3 
   41600          594   -786139.21          776            3 
   41700          594   -786139.21          876            3 
   41796          594   -786139.21          972            3 
Loop time of 271.257 on 4 procs for 972 steps with 4311 atoms

Performance: 0.155 ns/day, 155.040 hours/ns, 3.583 timesteps/s
94.3% CPU use with 4 MPI tasks x no OpenMP threads

MPI task timing breakdown:
Section |  min time  |  avg time  |  max time  |%varavg| %total
---------------------------------------------------------------
Pair    | 2.7832     | 7.3717     | 10.959     | 127.1 |  2.72
Bond    | 0.0017254  | 0.0032415  | 0.0074223  |   4.2 |  0.00
Kspace  | 65.516     | 69.108     | 73.698     |  41.6 | 25.48
Neigh   | 16.531     | 16.556     | 16.59      |   0.6 |  6.10
Comm    | 0.39558    | 0.44108    | 0.47099    |   4.8 |  0.16
Output  | 0.00018967 | 0.00051394 | 0.0013383  |   0.0 |  0.00
Modify  | 177.74     | 177.75     | 177.76     |   0.1 | 65.53
Other   |            | 0.02271    |            |       |  0.01

Nlocal:        1077.75 ave        1494 max         657 min
Histogram: 1 1 0 0 0 0 0 0 1 1
Nghost:        8908.75 ave       11946 max        5684 min
Histogram: 1 1 0 0 0 0 0 0 0 2
Neighs:         536036 ave      798165 max      198523 min
Histogram: 1 0 0 1 0 0 0 0 0 2

Total # of neighbors = 2144145
Ave neighs/atom = 497.36604
Ave special neighs/atom = 0.029227557
Neighbor list builds = 1944
Dangerous builds = 0

  unfix swp
  thermo_style custom step temp pe

next temp
jump SELF minimize_temp

  variable ftemp equal v_temp

  # Electrostatic relaxation
  fix swp swpFe atom/swap 1 1 ${rand} ${temp} ke no types 6 7
  fix swp swpFe atom/swap 1 1 6920765 ${temp} ke no types 6 7
  fix swp swpFe atom/swap 1 1 6920765 534 ke no types 6 7
  thermo 100
  thermo_style custom step v_ftemp pe f_swp[1] f_swp[2]
  run ${nsteps}
  run 972
WARNING: No fixes with time integration, atoms won't move (../verlet.cpp:60)
PPPM initialization ...
  using 12-bit tables for long-range coulomb (../kspace.cpp:340)
  G vector (1/distance) = 0.29499995
  grid = 45 45 250
  stencil order = 5
  estimated absolute RMS force accuracy = 0.00038527262
  estimated relative force accuracy = 1.160237e-06
  using double precision KISS FFT
  3d grid and FFT values/proc = 554040 378675
  generated 45 of 45 mixed pair_coeff terms from arithmetic mixing rule
Per MPI rank memory allocation (min/avg/max) = 24.35 | 35.11 | 63.71 Mbytes
Step v_ftemp PotEng f_swp[1] f_swp[2] 
   41796          534   -786139.21            0            0 
   41800          534   -786139.21            4            0 
   41900          534   -786139.21          104            0 
   42000          534   -786139.21          204            0 
   42100          534   -786139.21          304            0 
   42200          534   -786139.21          404            0 
   42300          534   -786139.21          504            0 
   42400          534   -786139.21          604            0 
   42500          534   -786139.21          704            0 
   42600          534   -786139.47          804            2 
   42700          534   -786139.47          904            2 
   42768          534   -786139.47          972            2 
Loop time of 272.091 on 4 procs for 972 steps with 4311 atoms

Performance: 0.154 ns/day, 155.516 hours/ns, 3.572 timesteps/s
94.4% CPU use with 4 MPI tasks x no OpenMP threads

MPI task timing breakdown:
Section |  min time  |  avg time  |  max time  |%varavg| %total
---------------------------------------------------------------
Pair    | 2.7821     | 7.3105     | 10.871     | 126.2 |  2.69
Bond    | 0.0014744  | 0.0030327  | 0.007412   |   4.6 |  0.00
Kspace  | 65.662     | 69.226     | 73.756     |  41.1 | 25.44
Neigh   | 16.61      | 16.637     | 16.675     |   0.7 |  6.11
Comm    | 0.42948    | 0.47949    | 0.51276    |   5.0 |  0.18
Output  | 0.00020976 | 0.00050288 | 0.001221   |   0.0 |  0.00
Modify  | 178.4      | 178.41     | 178.42     |   0.1 | 65.57
Other   |            | 0.02338    |            |       |  0.01

Nlocal:        1077.75 ave        1494 max         657 min
Histogram: 1 1 0 0 0 0 0 0 1 1
Nghost:        8908.75 ave       11946 max        5684 min
Histogram: 1 1 0 0 0 0 0 0 0 2
Neighs:         536036 ave      798165 max      198523 min
Histogram: 1 0 0 1 0 0 0 0 0 2

Total # of neighbors = 2144145
Ave neighs/atom = 497.36604
Ave special neighs/atom = 0.029227557
Neighbor list builds = 1944
Dangerous builds = 0

  unfix swp
  thermo_style custom step temp pe

next temp
jump SELF minimize_temp

  variable ftemp equal v_temp

  # Electrostatic relaxation
  fix swp swpFe atom/swap 1 1 ${rand} ${temp} ke no types 6 7
  fix swp swpFe atom/swap 1 1 4893935 ${temp} ke no types 6 7
  fix swp swpFe atom/swap 1 1 4893935 480 ke no types 6 7
  thermo 100
  thermo_style custom step v_ftemp pe f_swp[1] f_swp[2]
  run ${nsteps}
  run 972
WARNING: No fixes with time integration, atoms won't move (../verlet.cpp:60)
PPPM initialization ...
  using 12-bit tables for long-range coulomb (../kspace.cpp:340)
  G vector (1/distance) = 0.29499995
  grid = 45 45 250
  stencil order = 5
  estimated absolute RMS force accuracy = 0.00038527262
  estimated relative force accuracy = 1.160237e-06
  using double precision KISS FFT
  3d grid and FFT values/proc = 554040 378675
  generated 45 of 45 mixed pair_coeff terms from arithmetic mixing rule
Per MPI rank memory allocation (min/avg/max) = 24.35 | 35.11 | 63.71 Mbytes
Step v_ftemp PotEng f_swp[1] f_swp[2] 
   42768          480   -786139.47            0            0 
   42800          480   -786139.47           32            0 
   42900          480   -786139.47          132            0 
   43000          480   -786139.47          232            0 
   43100          480   -786139.47          332            0 
   43200          480   -786139.47          432            0 
   43300          480   -786139.47          532            0 
   43400          480   -786139.47          632            0 
   43500          480   -786139.47          732            0 
   43600          480   -786139.47          832            0 
   43700          480   -786139.47          932            0 
   43740          480   -786139.47          972            0 
Loop time of 269.441 on 4 procs for 972 steps with 4311 atoms

Performance: 0.156 ns/day, 154.001 hours/ns, 3.607 timesteps/s
94.3% CPU use with 4 MPI tasks x no OpenMP threads

MPI task timing breakdown:
Section |  min time  |  avg time  |  max time  |%varavg| %total
---------------------------------------------------------------
Pair    | 2.8087     | 7.4716     | 11.149     | 128.8 |  2.77
Bond    | 0.0018874  | 0.0035869  | 0.0081466  |   4.4 |  0.00
Kspace  | 64.524     | 68.205     | 72.869     |  42.7 | 25.31
Neigh   | 16.573     | 16.596     | 16.629     |   0.6 |  6.16
Comm    | 0.38569    | 0.43212    | 0.46198    |   4.9 |  0.16
Output  | 0.00021362 | 0.00051359 | 0.0012272  |   0.0 |  0.00
Modify  | 176.7      | 176.71     | 176.72     |   0.1 | 65.58
Other   |            | 0.02315    |            |       |  0.01

Nlocal:        1077.75 ave        1494 max         657 min
Histogram: 1 1 0 0 0 0 0 0 1 1
Nghost:        8908.75 ave       11946 max        5684 min
Histogram: 1 1 0 0 0 0 0 0 0 2
Neighs:         536036 ave      798165 max      198523 min
Histogram: 1 0 0 1 0 0 0 0 0 2

Total # of neighbors = 2144145
Ave neighs/atom = 497.36604
Ave special neighs/atom = 0.029227557
Neighbor list builds = 1944
Dangerous builds = 0

  unfix swp
  thermo_style custom step temp pe

next temp
jump SELF minimize_temp

  variable ftemp equal v_temp

  # Electrostatic relaxation
  fix swp swpFe atom/swap 1 1 ${rand} ${temp} ke no types 6 7
  fix swp swpFe atom/swap 1 1 9244496 ${temp} ke no types 6 7
  fix swp swpFe atom/swap 1 1 9244496 432 ke no types 6 7
  thermo 100
  thermo_style custom step v_ftemp pe f_swp[1] f_swp[2]
  run ${nsteps}
  run 972
WARNING: No fixes with time integration, atoms won't move (../verlet.cpp:60)
PPPM initialization ...
  using 12-bit tables for long-range coulomb (../kspace.cpp:340)
  G vector (1/distance) = 0.29499995
  grid = 45 45 250
  stencil order = 5
  estimated absolute RMS force accuracy = 0.00038527262
  estimated relative force accuracy = 1.160237e-06
  using double precision KISS FFT
  3d grid and FFT values/proc = 554040 378675
  generated 45 of 45 mixed pair_coeff terms from arithmetic mixing rule
Per MPI rank memory allocation (min/avg/max) = 24.35 | 35.11 | 63.71 Mbytes
Step v_ftemp PotEng f_swp[1] f_swp[2] 
   43740          432   -786139.47            0            0 
   43800          432   -786139.47           60            0 
   43900          432   -786139.47          160            0 
   44000          432   -786140.53          260            1 
   44100          432   -786140.53          360            1 
   44200          432   -786141.19          460            2 
   44300          432   -786142.53          560            3 
   44400          432   -786142.53          660            3 
   44500          432   -786142.53          760            3 
   44600          432   -786142.53          860            3 
   44700          432   -786142.53          960            3 
   44712          432   -786142.53          972            3 
Loop time of 270.296 on 4 procs for 972 steps with 4311 atoms

Performance: 0.155 ns/day, 154.490 hours/ns, 3.596 timesteps/s
94.4% CPU use with 4 MPI tasks x no OpenMP threads

MPI task timing breakdown:
Section |  min time  |  avg time  |  max time  |%varavg| %total
---------------------------------------------------------------
Pair    | 2.8116     | 7.5169     | 11.303     | 129.6 |  2.78
Bond    | 0.0019884  | 0.0038396  | 0.0085164  |   4.4 |  0.00
Kspace  | 64.643     | 68.433     | 73.139     |  43.0 | 25.32
Neigh   | 16.537     | 16.56      | 16.593     |   0.6 |  6.13
Comm    | 0.39413    | 0.43629    | 0.46445    |   4.5 |  0.16
Output  | 0.00021409 | 0.00054702 | 0.0013701  |   0.0 |  0.00
Modify  | 177.31     | 177.32     | 177.33     |   0.1 | 65.60
Other   |            | 0.02265    |            |       |  0.01

Nlocal:        1077.75 ave        1494 max         657 min
Histogram: 1 1 0 0 0 0 0 0 1 1
Nghost:        8908.75 ave       11946 max        5684 min
Histogram: 1 1 0 0 0 0 0 0 0 2
Neighs:         536036 ave      798165 max      198523 min
Histogram: 1 0 0 1 0 0 0 0 0 2

Total # of neighbors = 2144145
Ave neighs/atom = 497.36604
Ave special neighs/atom = 0.029227557
Neighbor list builds = 1944
Dangerous builds = 0

  unfix swp
  thermo_style custom step temp pe

next temp
jump SELF minimize_temp

  variable ftemp equal v_temp

  # Electrostatic relaxation
  fix swp swpFe atom/swap 1 1 ${rand} ${temp} ke no types 6 7
  fix swp swpFe atom/swap 1 1 5825701 ${temp} ke no types 6 7
  fix swp swpFe atom/swap 1 1 5825701 388 ke no types 6 7
  thermo 100
  thermo_style custom step v_ftemp pe f_swp[1] f_swp[2]
  run ${nsteps}
  run 972
WARNING: No fixes with time integration, atoms won't move (../verlet.cpp:60)
PPPM initialization ...
  using 12-bit tables for long-range coulomb (../kspace.cpp:340)
  G vector (1/distance) = 0.29499995
  grid = 45 45 250
  stencil order = 5
  estimated absolute RMS force accuracy = 0.00038527262
  estimated relative force accuracy = 1.160237e-06
  using double precision KISS FFT
  3d grid and FFT values/proc = 554040 378675
  generated 45 of 45 mixed pair_coeff terms from arithmetic mixing rule
Per MPI rank memory allocation (min/avg/max) = 24.35 | 35.11 | 63.71 Mbytes
Step v_ftemp PotEng f_swp[1] f_swp[2] 
   44712          388   -786142.53            0            0 
   44800          388   -786142.53           88            0 
   44900          388   -786142.53          188            0 
   45000          388   -786142.53          288            0 
   45100          388   -786142.53          388            0 
   45200          388   -786142.53          488            0 
   45300          388   -786143.23          588            1 
   45400          388   -786140.84          688            3 
   45500          388   -786140.84          788            3 
   45600          388   -786142.49          888            4 
   45684          388   -786142.49          972            4 
Loop time of 269.683 on 4 procs for 972 steps with 4311 atoms

Performance: 0.156 ns/day, 154.140 hours/ns, 3.604 timesteps/s
94.5% CPU use with 4 MPI tasks x no OpenMP threads

MPI task timing breakdown:
Section |  min time  |  avg time  |  max time  |%varavg| %total
---------------------------------------------------------------
Pair    | 2.7926     | 7.4123     | 11.052     | 127.9 |  2.75
Bond    | 0.0018329  | 0.0033974  | 0.0077534  |   4.3 |  0.00
Kspace  | 64.662     | 68.306     | 72.927     |  42.2 | 25.33
Neigh   | 16.577     | 16.604     | 16.64      |   0.6 |  6.16
Comm    | 0.4082     | 0.45536    | 0.48654    |   4.8 |  0.17
Output  | 0.00024828 | 0.00048936 | 0.001084   |   0.0 |  0.00
Modify  | 176.87     | 176.88     | 176.89     |   0.1 | 65.59
Other   |            | 0.02332    |            |       |  0.01

Nlocal:        1077.75 ave        1494 max         657 min
Histogram: 1 1 0 0 0 0 0 0 1 1
Nghost:        8908.75 ave       11946 max        5684 min
Histogram: 1 1 0 0 0 0 0 0 0 2
Neighs:         536036 ave      798165 max      198523 min
Histogram: 1 0 0 1 0 0 0 0 0 2

Total # of neighbors = 2144145
Ave neighs/atom = 497.36604
Ave special neighs/atom = 0.029227557
Neighbor list builds = 1944
Dangerous builds = 0

  unfix swp
  thermo_style custom step temp pe

next temp
jump SELF minimize_temp

  variable ftemp equal v_temp

  # Electrostatic relaxation
  fix swp swpFe atom/swap 1 1 ${rand} ${temp} ke no types 6 7
  fix swp swpFe atom/swap 1 1 2375897 ${temp} ke no types 6 7
  fix swp swpFe atom/swap 1 1 2375897 349 ke no types 6 7
  thermo 100
  thermo_style custom step v_ftemp pe f_swp[1] f_swp[2]
  run ${nsteps}
  run 972
WARNING: No fixes with time integration, atoms won't move (../verlet.cpp:60)
PPPM initialization ...
  using 12-bit tables for long-range coulomb (../kspace.cpp:340)
  G vector (1/distance) = 0.29499995
  grid = 45 45 250
  stencil order = 5
  estimated absolute RMS force accuracy = 0.00038527262
  estimated relative force accuracy = 1.160237e-06
  using double precision KISS FFT
  3d grid and FFT values/proc = 554040 378675
  generated 45 of 45 mixed pair_coeff terms from arithmetic mixing rule
Per MPI rank memory allocation (min/avg/max) = 24.35 | 35.11 | 63.71 Mbytes
Step v_ftemp PotEng f_swp[1] f_swp[2] 
   45684          349   -786142.49            0            0 
   45700          349   -786142.49           16            0 
   45800          349   -786142.49          116            0 
   45900          349   -786142.49          216            0 
   46000          349   -786142.49          316            0 
   46100          349   -786142.49          416            0 
   46200          349   -786142.49          516            0 
   46300          349   -786142.49          616            0 
   46400          349   -786142.49          716            0 
   46500          349   -786142.49          816            0 
   46600          349   -786142.49          916            0 
   46656          349   -786142.49          972            0 
Loop time of 270.012 on 4 procs for 972 steps with 4311 atoms

Performance: 0.156 ns/day, 154.328 hours/ns, 3.600 timesteps/s
94.8% CPU use with 4 MPI tasks x no OpenMP threads

MPI task timing breakdown:
Section |  min time  |  avg time  |  max time  |%varavg| %total
---------------------------------------------------------------
Pair    | 2.7625     | 7.2601     | 10.803     | 124.9 |  2.69
Bond    | 0.00094117 | 0.0027645  | 0.0071638  |   4.8 |  0.00
Kspace  | 64.081     | 67.629     | 72.127     |  40.9 | 25.05
Neigh   | 16.703     | 16.732     | 16.772     |   0.7 |  6.20
Comm    | 0.47188    | 0.52875    | 0.56492    |   5.3 |  0.20
Output  | 0.00024254 | 0.00073633 | 0.0020031  |   0.0 |  0.00
Modify  | 177.82     | 177.83     | 177.85     |   0.1 | 65.86
Other   |            | 0.0253     |            |       |  0.01

Nlocal:        1077.75 ave        1494 max         657 min
Histogram: 1 1 0 0 0 0 0 0 1 1
Nghost:        8908.75 ave       11946 max        5684 min
Histogram: 1 1 0 0 0 0 0 0 0 2
Neighs:         536036 ave      798165 max      198523 min
Histogram: 1 0 0 1 0 0 0 0 0 2

Total # of neighbors = 2144145
Ave neighs/atom = 497.36604
Ave special neighs/atom = 0.029227557
Neighbor list builds = 1944
Dangerous builds = 0

  unfix swp
  thermo_style custom step temp pe

next temp
jump SELF minimize_temp

  variable ftemp equal v_temp

  # Electrostatic relaxation
  fix swp swpFe atom/swap 1 1 ${rand} ${temp} ke no types 6 7
  fix swp swpFe atom/swap 1 1 658845 ${temp} ke no types 6 7
  fix swp swpFe atom/swap 1 1 658845 314 ke no types 6 7
  thermo 100
  thermo_style custom step v_ftemp pe f_swp[1] f_swp[2]
  run ${nsteps}
  run 972
WARNING: No fixes with time integration, atoms won't move (../verlet.cpp:60)
PPPM initialization ...
  using 12-bit tables for long-range coulomb (../kspace.cpp:340)
  G vector (1/distance) = 0.29499995
  grid = 45 45 250
  stencil order = 5
  estimated absolute RMS force accuracy = 0.00038527262
  estimated relative force accuracy = 1.160237e-06
  using double precision KISS FFT
  3d grid and FFT values/proc = 554040 378675
  generated 45 of 45 mixed pair_coeff terms from arithmetic mixing rule
Per MPI rank memory allocation (min/avg/max) = 24.35 | 35.11 | 63.71 Mbytes
Step v_ftemp PotEng f_swp[1] f_swp[2] 
   46656          314   -786142.49            0            0 
   46700          314   -786142.49           44            0 
   46800          314   -786142.49          144            0 
   46900          314   -786142.49          244            0 
   47000          314   -786142.49          344            0 
   47100          314   -786142.49          444            0 
   47200          314   -786142.49          544            0 
   47300          314   -786142.49          644            0 
   47400          314   -786142.49          744            0 
   47500          314   -786142.49          844            0 
   47600          314   -786142.49          944            0 
   47628          314   -786142.49          972            0 
Loop time of 303.173 on 4 procs for 972 steps with 4311 atoms

Performance: 0.139 ns/day, 173.281 hours/ns, 3.206 timesteps/s
89.5% CPU use with 4 MPI tasks x no OpenMP threads

MPI task timing breakdown:
Section |  min time  |  avg time  |  max time  |%varavg| %total
---------------------------------------------------------------
Pair    | 3.032      | 7.9245     | 11.74      | 131.2 |  2.61
Bond    | 0.0018142  | 0.0038631  | 0.0092719  |   5.0 |  0.00
Kspace  | 72.961     | 76.783     | 81.664     |  42.2 | 25.33
Neigh   | 19.042     | 19.102     | 19.138     |   0.8 |  6.30
Comm    | 0.97577    | 1.0144     | 1.075      |   4.1 |  0.33
Output  | 0.00025741 | 0.00059855 | 0.0014298  |   0.0 |  0.00
Modify  | 198.28     | 198.31     | 198.35     |   0.2 | 65.41
Other   |            | 0.03475    |            |       |  0.01

Nlocal:        1077.75 ave        1494 max         657 min
Histogram: 1 1 0 0 0 0 0 0 1 1
Nghost:        8908.75 ave       11946 max        5684 min
Histogram: 1 1 0 0 0 0 0 0 0 2
Neighs:         536036 ave      798165 max      198523 min
Histogram: 1 0 0 1 0 0 0 0 0 2

Total # of neighbors = 2144145
Ave neighs/atom = 497.36604
Ave special neighs/atom = 0.029227557
Neighbor list builds = 1944
Dangerous builds = 0

  unfix swp
  thermo_style custom step temp pe

next temp
jump SELF minimize_temp

  variable ftemp equal v_temp

  # Electrostatic relaxation
  fix swp swpFe atom/swap 1 1 ${rand} ${temp} ke no types 6 7
  fix swp swpFe atom/swap 1 1 6228661 ${temp} ke no types 6 7
  fix swp swpFe atom/swap 1 1 6228661 282 ke no types 6 7
  thermo 100
  thermo_style custom step v_ftemp pe f_swp[1] f_swp[2]
  run ${nsteps}
  run 972
WARNING: No fixes with time integration, atoms won't move (../verlet.cpp:60)
PPPM initialization ...
  using 12-bit tables for long-range coulomb (../kspace.cpp:340)
  G vector (1/distance) = 0.29499995
  grid = 45 45 250
  stencil order = 5
  estimated absolute RMS force accuracy = 0.00038527262
  estimated relative force accuracy = 1.160237e-06
  using double precision KISS FFT
  3d grid and FFT values/proc = 554040 378675
  generated 45 of 45 mixed pair_coeff terms from arithmetic mixing rule
Per MPI rank memory allocation (min/avg/max) = 24.35 | 35.11 | 63.71 Mbytes
Step v_ftemp PotEng f_swp[1] f_swp[2] 
   47628          282   -786142.49            0            0 
   47700          282   -786142.49           72            0 
   47800          282   -786143.23          172            1 
   47900          282   -786143.23          272            1 
   48000          282   -786143.23          372            1 
   48100          282   -786143.23          472            1 
   48200          282   -786143.23          572            1 
   48300          282   -786143.23          672            1 
   48400          282   -786143.23          772            1 
   48500          282   -786143.23          872            1 
   48600          282   -786143.23          972            1 
Loop time of 287.965 on 4 procs for 972 steps with 4311 atoms

Performance: 0.146 ns/day, 164.589 hours/ns, 3.375 timesteps/s
91.6% CPU use with 4 MPI tasks x no OpenMP threads

MPI task timing breakdown:
Section |  min time  |  avg time  |  max time  |%varavg| %total
---------------------------------------------------------------
Pair    | 2.9479     | 7.9021     | 11.911     | 133.0 |  2.74
Bond    | 0.0020722  | 0.0040438  | 0.0093706  |   4.8 |  0.00
Kspace  | 68.729     | 72.725     | 77.696     |  43.9 | 25.25
Neigh   | 18.16      | 18.192     | 18.238     |   0.7 |  6.32
Comm    | 0.51989    | 0.56629    | 0.62894    |   6.1 |  0.20
Output  | 0.00027376 | 0.00067932 | 0.0015296  |   0.0 |  0.00
Modify  | 188.53     | 188.54     | 188.55     |   0.1 | 65.47
Other   |            | 0.02931    |            |       |  0.01

Nlocal:        1077.75 ave        1494 max         657 min
Histogram: 1 1 0 0 0 0 0 0 1 1
Nghost:        8908.75 ave       11946 max        5684 min
Histogram: 1 1 0 0 0 0 0 0 0 2
Neighs:         536036 ave      798165 max      198523 min
Histogram: 1 0 0 1 0 0 0 0 0 2

Total # of neighbors = 2144145
Ave neighs/atom = 497.36604
Ave special neighs/atom = 0.029227557
Neighbor list builds = 1944
Dangerous builds = 0

  unfix swp
  thermo_style custom step temp pe

next temp
jump SELF minimize_temp

  variable ftemp equal v_temp

  # Electrostatic relaxation
  fix swp swpFe atom/swap 1 1 ${rand} ${temp} ke no types 6 7
  fix swp swpFe atom/swap 1 1 7694381 ${temp} ke no types 6 7
  fix swp swpFe atom/swap 1 1 7694381 253 ke no types 6 7
  thermo 100
  thermo_style custom step v_ftemp pe f_swp[1] f_swp[2]
  run ${nsteps}
  run 972
WARNING: No fixes with time integration, atoms won't move (../verlet.cpp:60)
PPPM initialization ...
  using 12-bit tables for long-range coulomb (../kspace.cpp:340)
  G vector (1/distance) = 0.29499995
  grid = 45 45 250
  stencil order = 5
  estimated absolute RMS force accuracy = 0.00038527262
  estimated relative force accuracy = 1.160237e-06
  using double precision KISS FFT
  3d grid and FFT values/proc = 554040 378675
  generated 45 of 45 mixed pair_coeff terms from arithmetic mixing rule
Per MPI rank memory allocation (min/avg/max) = 24.35 | 35.11 | 63.71 Mbytes
Step v_ftemp PotEng f_swp[1] f_swp[2] 
   48600          253   -786143.23            0            0 
   48700          253   -786143.23          100            0 
   48800          253   -786143.23          200            0 
   48900          253   -786143.23          300            0 
   49000          253   -786143.23          400            0 
   49100          253   -786143.23          500            0 
   49200          253   -786143.23          600            0 
   49300          253   -786143.23          700            0 
   49400          253   -786143.23          800            0 
   49500          253   -786143.23          900            0 
   49572          253   -786143.23          972            0 
Loop time of 280.173 on 4 procs for 972 steps with 4311 atoms

Performance: 0.150 ns/day, 160.135 hours/ns, 3.469 timesteps/s
93.9% CPU use with 4 MPI tasks x no OpenMP threads

MPI task timing breakdown:
Section |  min time  |  avg time  |  max time  |%varavg| %total
---------------------------------------------------------------
Pair    | 2.7671     | 7.411      | 11.148     | 128.9 |  2.65
Bond    | 0.0017879  | 0.0032621  | 0.0073466  |   4.1 |  0.00
Kspace  | 67.39      | 71.132     | 75.777     |  41.6 | 25.39
Neigh   | 16.878     | 16.914     | 16.96      |   0.7 |  6.04
Comm    | 0.46103    | 0.51931    | 0.56048    |   5.4 |  0.19
Output  | 0.00018502 | 0.00043212 | 0.0010141  |   0.0 |  0.00
Modify  | 184.15     | 184.17     | 184.18     |   0.1 | 65.73
Other   |            | 0.02409    |            |       |  0.01

Nlocal:        1077.75 ave        1494 max         657 min
Histogram: 1 1 0 0 0 0 0 0 1 1
Nghost:        8908.75 ave       11946 max        5684 min
Histogram: 1 1 0 0 0 0 0 0 0 2
Neighs:         536036 ave      798165 max      198523 min
Histogram: 1 0 0 1 0 0 0 0 0 2

Total # of neighbors = 2144145
Ave neighs/atom = 497.36604
Ave special neighs/atom = 0.029227557
Neighbor list builds = 1944
Dangerous builds = 0

  unfix swp
  thermo_style custom step temp pe

next temp
jump SELF minimize_temp

  variable ftemp equal v_temp

  # Electrostatic relaxation
  fix swp swpFe atom/swap 1 1 ${rand} ${temp} ke no types 6 7
  fix swp swpFe atom/swap 1 1 3903945 ${temp} ke no types 6 7
  fix swp swpFe atom/swap 1 1 3903945 227 ke no types 6 7
  thermo 100
  thermo_style custom step v_ftemp pe f_swp[1] f_swp[2]
  run ${nsteps}
  run 972
WARNING: No fixes with time integration, atoms won't move (../verlet.cpp:60)
PPPM initialization ...
  using 12-bit tables for long-range coulomb (../kspace.cpp:340)
  G vector (1/distance) = 0.29499995
  grid = 45 45 250
  stencil order = 5
  estimated absolute RMS force accuracy = 0.00038527262
  estimated relative force accuracy = 1.160237e-06
  using double precision KISS FFT
  3d grid and FFT values/proc = 554040 378675
  generated 45 of 45 mixed pair_coeff terms from arithmetic mixing rule
Per MPI rank memory allocation (min/avg/max) = 24.35 | 35.11 | 63.71 Mbytes
Step v_ftemp PotEng f_swp[1] f_swp[2] 
   49572          227   -786143.23            0            0 
   49600          227   -786143.23           28            0 
   49700          227   -786143.23          128            0 
   49800          227   -786144.25          228            1 
   49900          227   -786144.25          328            1 
   50000          227   -786144.25          428            1 
   50100          227   -786144.25          528            1 
   50200          227   -786144.25          628            1 
   50300          227   -786144.25          728            1 
   50400          227   -786144.25          828            1 
   50500          227   -786144.25          928            1 
   50544          227   -786144.25          972            1 
Loop time of 277.286 on 4 procs for 972 steps with 4311 atoms

Performance: 0.151 ns/day, 158.485 hours/ns, 3.505 timesteps/s
94.0% CPU use with 4 MPI tasks x no OpenMP threads

MPI task timing breakdown:
Section |  min time  |  avg time  |  max time  |%varavg| %total
---------------------------------------------------------------
Pair    | 2.8273     | 7.5428     | 11.319     | 129.9 |  2.72
Bond    | 0.0020494  | 0.0037468  | 0.0081844  |   4.2 |  0.00
Kspace  | 66.869     | 70.649     | 75.366     |  42.5 | 25.48
Neigh   | 16.867     | 16.894     | 16.932     |   0.7 |  6.09
Comm    | 0.44937    | 0.4973     | 0.53069    |   4.9 |  0.18
Output  | 0.00022879 | 0.00058144 | 0.0014325  |   0.0 |  0.00
Modify  | 181.66     | 181.68     | 181.69     |   0.1 | 65.52
Other   |            | 0.02325    |            |       |  0.01

Nlocal:        1077.75 ave        1494 max         657 min
Histogram: 1 1 0 0 0 0 0 0 1 1
Nghost:        8908.75 ave       11946 max        5684 min
Histogram: 1 1 0 0 0 0 0 0 0 2
Neighs:         536036 ave      798165 max      198523 min
Histogram: 1 0 0 1 0 0 0 0 0 2

Total # of neighbors = 2144145
Ave neighs/atom = 497.36604
Ave special neighs/atom = 0.029227557
Neighbor list builds = 1944
Dangerous builds = 0

  unfix swp
  thermo_style custom step temp pe

next temp
jump SELF minimize_temp

  variable ftemp equal v_temp

  # Electrostatic relaxation
  fix swp swpFe atom/swap 1 1 ${rand} ${temp} ke no types 6 7
  fix swp swpFe atom/swap 1 1 9454489 ${temp} ke no types 6 7
  fix swp swpFe atom/swap 1 1 9454489 204 ke no types 6 7
  thermo 100
  thermo_style custom step v_ftemp pe f_swp[1] f_swp[2]
  run ${nsteps}
  run 972
WARNING: No fixes with time integration, atoms won't move (../verlet.cpp:60)
PPPM initialization ...
  using 12-bit tables for long-range coulomb (../kspace.cpp:340)
  G vector (1/distance) = 0.29499995
  grid = 45 45 250
  stencil order = 5
  estimated absolute RMS force accuracy = 0.00038527262
  estimated relative force accuracy = 1.160237e-06
  using double precision KISS FFT
  3d grid and FFT values/proc = 554040 378675
  generated 45 of 45 mixed pair_coeff terms from arithmetic mixing rule
Per MPI rank memory allocation (min/avg/max) = 24.35 | 35.11 | 63.71 Mbytes
Step v_ftemp PotEng f_swp[1] f_swp[2] 
   50544          204   -786144.25            0            0 
   50600          204   -786144.25           56            0 
   50700          204   -786144.25          156            0 
   50800          204   -786144.25          256            0 
   50900          204   -786144.25          356            0 
   51000          204   -786144.25          456            0 
   51100          204   -786144.25          556            0 
   51200          204   -786144.25          656            0 
   51300          204   -786144.25          756            0 
   51400          204   -786144.25          856            0 
   51500          204   -786144.25          956            0 
   51516          204   -786144.25          972            0 
Loop time of 283.046 on 4 procs for 972 steps with 4311 atoms

Performance: 0.148 ns/day, 161.777 hours/ns, 3.434 timesteps/s
93.3% CPU use with 4 MPI tasks x no OpenMP threads

MPI task timing breakdown:
Section |  min time  |  avg time  |  max time  |%varavg| %total
---------------------------------------------------------------
Pair    | 2.8005     | 7.4665     | 11.21      | 129.1 |  2.64
Bond    | 0.0016773  | 0.0030407  | 0.0070263  |   4.2 |  0.00
Kspace  | 69.626     | 73.375     | 78.038     |  41.2 | 25.92
Neigh   | 17.404     | 17.443     | 17.489     |   0.8 |  6.16
Comm    | 0.52911    | 0.59158    | 0.63346    |   5.6 |  0.21
Output  | 0.0002556  | 0.00063231 | 0.0015327  |   0.0 |  0.00
Modify  | 184.12     | 184.14     | 184.15     |   0.1 | 65.06
Other   |            | 0.02543    |            |       |  0.01

Nlocal:        1077.75 ave        1494 max         657 min
Histogram: 1 1 0 0 0 0 0 0 1 1
Nghost:        8908.75 ave       11946 max        5684 min
Histogram: 1 1 0 0 0 0 0 0 0 2
Neighs:         536036 ave      798165 max      198523 min
Histogram: 1 0 0 1 0 0 0 0 0 2

Total # of neighbors = 2144145
Ave neighs/atom = 497.36604
Ave special neighs/atom = 0.029227557
Neighbor list builds = 1944
Dangerous builds = 0

  unfix swp
  thermo_style custom step temp pe

next temp
jump SELF minimize_temp

  variable ftemp equal v_temp

  # Electrostatic relaxation
  fix swp swpFe atom/swap 1 1 ${rand} ${temp} ke no types 6 7
  fix swp swpFe atom/swap 1 1 5910174 ${temp} ke no types 6 7
  fix swp swpFe atom/swap 1 1 5910174 183 ke no types 6 7
  thermo 100
  thermo_style custom step v_ftemp pe f_swp[1] f_swp[2]
  run ${nsteps}
  run 972
WARNING: No fixes with time integration, atoms won't move (../verlet.cpp:60)
PPPM initialization ...
  using 12-bit tables for long-range coulomb (../kspace.cpp:340)
  G vector (1/distance) = 0.29499995
  grid = 45 45 250
  stencil order = 5
  estimated absolute RMS force accuracy = 0.00038527262
  estimated relative force accuracy = 1.160237e-06
  using double precision KISS FFT
  3d grid and FFT values/proc = 554040 378675
  generated 45 of 45 mixed pair_coeff terms from arithmetic mixing rule
Per MPI rank memory allocation (min/avg/max) = 24.35 | 35.11 | 63.71 Mbytes
Step v_ftemp PotEng f_swp[1] f_swp[2] 
   51516          183   -786144.25            0            0 
   51600          183   -786144.25           84            0 
   51700          183   -786144.25          184            0 
   51800          183   -786144.25          284            0 
   51900          183   -786144.25          384            0 
   52000          183   -786144.25          484            0 
   52100          183   -786144.25          584            0 
   52200          183   -786144.25          684            0 
   52300          183   -786144.25          784            0 
   52400          183   -786144.25          884            0 
   52488          183   -786144.25          972            0 
Loop time of 285.309 on 4 procs for 972 steps with 4311 atoms

Performance: 0.147 ns/day, 163.071 hours/ns, 3.407 timesteps/s
93.0% CPU use with 4 MPI tasks x no OpenMP threads

MPI task timing breakdown:
Section |  min time  |  avg time  |  max time  |%varavg| %total
---------------------------------------------------------------
Pair    | 2.8018     | 7.4924     | 11.211     | 129.2 |  2.63
Bond    | 0.0017594  | 0.003472   | 0.0082697  |   4.7 |  0.00
Kspace  | 69.695     | 73.41      | 78.11      |  41.3 | 25.73
Neigh   | 17.292     | 17.32      | 17.365     |   0.7 |  6.07
Comm    | 0.49198    | 0.54887    | 0.594      |   5.4 |  0.19
Output  | 0.00020113 | 0.00042964 | 0.00094241 |   0.0 |  0.00
Modify  | 186.5      | 186.51     | 186.53     |   0.1 | 65.37
Other   |            | 0.02352    |            |       |  0.01

Nlocal:        1077.75 ave        1494 max         657 min
Histogram: 1 1 0 0 0 0 0 0 1 1
Nghost:        8908.75 ave       11946 max        5684 min
Histogram: 1 1 0 0 0 0 0 0 0 2
Neighs:         536036 ave      798165 max      198523 min
Histogram: 1 0 0 1 0 0 0 0 0 2

Total # of neighbors = 2144145
Ave neighs/atom = 497.36604
Ave special neighs/atom = 0.029227557
Neighbor list builds = 1944
Dangerous builds = 0

  unfix swp
  thermo_style custom step temp pe

next temp
jump SELF minimize_temp

  variable ftemp equal v_temp

  # Electrostatic relaxation
  fix swp swpFe atom/swap 1 1 ${rand} ${temp} ke no types 6 7
  fix swp swpFe atom/swap 1 1 1067984 ${temp} ke no types 6 7
  fix swp swpFe atom/swap 1 1 1067984 164 ke no types 6 7
  thermo 100
  thermo_style custom step v_ftemp pe f_swp[1] f_swp[2]
  run ${nsteps}
  run 972
WARNING: No fixes with time integration, atoms won't move (../verlet.cpp:60)
PPPM initialization ...
  using 12-bit tables for long-range coulomb (../kspace.cpp:340)
  G vector (1/distance) = 0.29499995
  grid = 45 45 250
  stencil order = 5
  estimated absolute RMS force accuracy = 0.00038527262
  estimated relative force accuracy = 1.160237e-06
  using double precision KISS FFT
  3d grid and FFT values/proc = 554040 378675
  generated 45 of 45 mixed pair_coeff terms from arithmetic mixing rule
Per MPI rank memory allocation (min/avg/max) = 24.35 | 35.11 | 63.71 Mbytes
Step v_ftemp PotEng f_swp[1] f_swp[2] 
   52488          164   -786144.25            0            0 
   52500          164   -786144.25           12            0 
   52600          164   -786144.25          112            0 
   52700          164   -786144.25          212            0 
   52800          164   -786144.25          312            0 
   52900          164   -786144.25          412            0 
   53000          164   -786144.25          512            0 
   53100          164   -786144.25          612            0 
   53200          164   -786144.25          712            0 
   53300          164   -786144.25          812            0 
   53400          164   -786144.25          912            0 
   53460          164   -786144.25          972            0 
Loop time of 282.824 on 4 procs for 972 steps with 4311 atoms

Performance: 0.148 ns/day, 161.651 hours/ns, 3.437 timesteps/s
93.1% CPU use with 4 MPI tasks x no OpenMP threads

MPI task timing breakdown:
Section |  min time  |  avg time  |  max time  |%varavg| %total
---------------------------------------------------------------
Pair    | 2.8635     | 7.5778     | 11.364     | 128.9 |  2.68
Bond    | 0.0019501  | 0.0035151  | 0.0080792  |   4.4 |  0.00
Kspace  | 68.359     | 72.154     | 76.866     |  41.8 | 25.51
Neigh   | 17.044     | 17.071     | 17.1       |   0.6 |  6.04
Comm    | 0.446      | 0.485      | 0.52303    |   4.6 |  0.17
Output  | 0.00021008 | 0.00047282 | 0.0010868  |   0.0 |  0.00
Modify  | 185.5      | 185.51     | 185.52     |   0.1 | 65.59
Other   |            | 0.02474    |            |       |  0.01

Nlocal:        1077.75 ave        1494 max         657 min
Histogram: 1 1 0 0 0 0 0 0 1 1
Nghost:        8908.75 ave       11946 max        5684 min
Histogram: 1 1 0 0 0 0 0 0 0 2
Neighs:         536036 ave      798165 max      198523 min
Histogram: 1 0 0 1 0 0 0 0 0 2

Total # of neighbors = 2144145
Ave neighs/atom = 497.36604
Ave special neighs/atom = 0.029227557
Neighbor list builds = 1944
Dangerous builds = 0

  unfix swp
  thermo_style custom step temp pe

next temp
jump SELF minimize_temp

  variable ftemp equal v_temp

  # Electrostatic relaxation
  fix swp swpFe atom/swap 1 1 ${rand} ${temp} ke no types 6 7
  fix swp swpFe atom/swap 1 1 2893895 ${temp} ke no types 6 7
  fix swp swpFe atom/swap 1 1 2893895 147 ke no types 6 7
  thermo 100
  thermo_style custom step v_ftemp pe f_swp[1] f_swp[2]
  run ${nsteps}
  run 972
WARNING: No fixes with time integration, atoms won't move (../verlet.cpp:60)
PPPM initialization ...
  using 12-bit tables for long-range coulomb (../kspace.cpp:340)
  G vector (1/distance) = 0.29499995
  grid = 45 45 250
  stencil order = 5
  estimated absolute RMS force accuracy = 0.00038527262
  estimated relative force accuracy = 1.160237e-06
  using double precision KISS FFT
  3d grid and FFT values/proc = 554040 378675
  generated 45 of 45 mixed pair_coeff terms from arithmetic mixing rule
Per MPI rank memory allocation (min/avg/max) = 24.35 | 35.11 | 63.71 Mbytes
Step v_ftemp PotEng f_swp[1] f_swp[2] 
   53460          147   -786144.25            0            0 
   53500          147   -786144.25           40            0 
   53600          147   -786144.25          140            0 
   53700          147   -786144.25          240            0 
   53800          147   -786144.25          340            0 
   53900          147   -786144.25          440            0 
   54000          147   -786144.25          540            0 
   54100          147   -786144.25          640            0 
   54200          147   -786144.25          740            0 
   54300          147   -786144.25          840            0 
   54400          147   -786144.25          940            0 
   54432          147   -786144.25          972            0 
Loop time of 278.753 on 4 procs for 972 steps with 4311 atoms

Performance: 0.151 ns/day, 159.324 hours/ns, 3.487 timesteps/s
94.2% CPU use with 4 MPI tasks x no OpenMP threads

MPI task timing breakdown:
Section |  min time  |  avg time  |  max time  |%varavg| %total
---------------------------------------------------------------
Pair    | 2.7963     | 7.3801     | 11.003     | 127.1 |  2.65
Bond    | 0.0016146  | 0.0030512  | 0.0071094  |   4.2 |  0.00
Kspace  | 68.383     | 72.01      | 76.595     |  40.7 | 25.83
Neigh   | 16.512     | 16.536     | 16.568     |   0.6 |  5.93
Comm    | 0.39604    | 0.43887    | 0.46953    |   4.7 |  0.16
Output  | 0.00021156 | 0.00051516 | 0.0012197  |   0.0 |  0.00
Modify  | 182.35     | 182.36     | 182.37     |   0.1 | 65.42
Other   |            | 0.02354    |            |       |  0.01

Nlocal:        1077.75 ave        1494 max         657 min
Histogram: 1 1 0 0 0 0 0 0 1 1
Nghost:        8908.75 ave       11946 max        5684 min
Histogram: 1 1 0 0 0 0 0 0 0 2
Neighs:         536036 ave      798165 max      198523 min
Histogram: 1 0 0 1 0 0 0 0 0 2

Total # of neighbors = 2144145
Ave neighs/atom = 497.36604
Ave special neighs/atom = 0.029227557
Neighbor list builds = 1944
Dangerous builds = 0

  unfix swp
  thermo_style custom step temp pe

next temp
jump SELF minimize_temp

  variable ftemp equal v_temp

  # Electrostatic relaxation
  fix swp swpFe atom/swap 1 1 ${rand} ${temp} ke no types 6 7
  fix swp swpFe atom/swap 1 1 8575820 ${temp} ke no types 6 7
  fix swp swpFe atom/swap 1 1 8575820 132 ke no types 6 7
  thermo 100
  thermo_style custom step v_ftemp pe f_swp[1] f_swp[2]
  run ${nsteps}
  run 972
WARNING: No fixes with time integration, atoms won't move (../verlet.cpp:60)
PPPM initialization ...
  using 12-bit tables for long-range coulomb (../kspace.cpp:340)
  G vector (1/distance) = 0.29499995
  grid = 45 45 250
  stencil order = 5
  estimated absolute RMS force accuracy = 0.00038527262
  estimated relative force accuracy = 1.160237e-06
  using double precision KISS FFT
  3d grid and FFT values/proc = 554040 378675
  generated 45 of 45 mixed pair_coeff terms from arithmetic mixing rule
Per MPI rank memory allocation (min/avg/max) = 24.35 | 35.11 | 63.71 Mbytes
Step v_ftemp PotEng f_swp[1] f_swp[2] 
   54432          132   -786144.25            0            0 
   54500          132   -786144.25           68            0 
   54600          132   -786144.25          168            0 
   54700          132   -786144.25          268            0 
   54800          132   -786144.25          368            0 
   54900          132   -786144.25          468            0 
   55000          132   -786144.25          568            0 
   55100          132   -786144.25          668            0 
   55200          132   -786144.25          768            0 
   55300          132   -786144.25          868            0 
   55400          132   -786144.25          968            0 
   55404          132   -786144.25          972            0 
Loop time of 277.271 on 4 procs for 972 steps with 4311 atoms

Performance: 0.151 ns/day, 158.477 hours/ns, 3.506 timesteps/s
94.2% CPU use with 4 MPI tasks x no OpenMP threads

MPI task timing breakdown:
Section |  min time  |  avg time  |  max time  |%varavg| %total
---------------------------------------------------------------
Pair    | 2.7642     | 7.3787     | 11.022     | 127.8 |  2.66
Bond    | 0.0018071  | 0.0031975  | 0.0072217  |   4.1 |  0.00
Kspace  | 67.644     | 71.291     | 75.908     |  41.1 | 25.71
Neigh   | 16.644     | 16.671     | 16.708     |   0.6 |  6.01
Comm    | 0.43248    | 0.48064    | 0.51263    |   4.8 |  0.17
Output  | 0.00019943 | 0.00047819 | 0.0011376  |   0.0 |  0.00
Modify  | 181.41     | 181.42     | 181.43     |   0.1 | 65.43
Other   |            | 0.02245    |            |       |  0.01

Nlocal:        1077.75 ave        1494 max         657 min
Histogram: 1 1 0 0 0 0 0 0 1 1
Nghost:        8908.75 ave       11946 max        5684 min
Histogram: 1 1 0 0 0 0 0 0 0 2
Neighs:         536036 ave      798165 max      198523 min
Histogram: 1 0 0 1 0 0 0 0 0 2

Total # of neighbors = 2144145
Ave neighs/atom = 497.36604
Ave special neighs/atom = 0.029227557
Neighbor list builds = 1944
Dangerous builds = 0

  unfix swp
  thermo_style custom step temp pe

next temp
jump SELF minimize_temp

  variable ftemp equal v_temp

  # Electrostatic relaxation
  fix swp swpFe atom/swap 1 1 ${rand} ${temp} ke no types 6 7
  fix swp swpFe atom/swap 1 1 8930244 ${temp} ke no types 6 7
  fix swp swpFe atom/swap 1 1 8930244 118 ke no types 6 7
  thermo 100
  thermo_style custom step v_ftemp pe f_swp[1] f_swp[2]
  run ${nsteps}
  run 972
WARNING: No fixes with time integration, atoms won't move (../verlet.cpp:60)
PPPM initialization ...
  using 12-bit tables for long-range coulomb (../kspace.cpp:340)
  G vector (1/distance) = 0.29499995
  grid = 45 45 250
  stencil order = 5
  estimated absolute RMS force accuracy = 0.00038527262
  estimated relative force accuracy = 1.160237e-06
  using double precision KISS FFT
  3d grid and FFT values/proc = 554040 378675
  generated 45 of 45 mixed pair_coeff terms from arithmetic mixing rule
Per MPI rank memory allocation (min/avg/max) = 24.35 | 35.11 | 63.71 Mbytes
Step v_ftemp PotEng f_swp[1] f_swp[2] 
   55404          118   -786144.25            0            0 
   55500          118   -786144.25           96            0 
   55600          118   -786144.25          196            0 
   55700          118   -786144.25          296            0 
   55800          118   -786144.25          396            0 
   55900          118   -786144.25          496            0 
   56000          118   -786144.25          596            0 
   56100          118   -786144.25          696            0 
   56200          118   -786144.25          796            0 
   56300          118   -786144.25          896            0 
   56376          118   -786144.25          972            0 
Loop time of 272.18 on 4 procs for 972 steps with 4311 atoms

Performance: 0.154 ns/day, 155.567 hours/ns, 3.571 timesteps/s
94.2% CPU use with 4 MPI tasks x no OpenMP threads

MPI task timing breakdown:
Section |  min time  |  avg time  |  max time  |%varavg| %total
---------------------------------------------------------------
Pair    | 2.8241     | 7.4291     | 11.054     | 127.2 |  2.73
Bond    | 0.0017425  | 0.003257   | 0.0074085  |   4.2 |  0.00
Kspace  | 66.132     | 69.762     | 74.369     |  41.6 | 25.63
Neigh   | 16.64      | 16.664     | 16.698     |   0.6 |  6.12
Comm    | 0.42198    | 0.46866    | 0.49975    |   4.8 |  0.17
Output  | 0.00020075 | 0.00053577 | 0.0013644  |   0.0 |  0.00
Modify  | 177.82     | 177.83     | 177.84     |   0.1 | 65.33
Other   |            | 0.02411    |            |       |  0.01

Nlocal:        1077.75 ave        1494 max         657 min
Histogram: 1 1 0 0 0 0 0 0 1 1
Nghost:        8908.75 ave       11946 max        5684 min
Histogram: 1 1 0 0 0 0 0 0 0 2
Neighs:         536036 ave      798165 max      198523 min
Histogram: 1 0 0 1 0 0 0 0 0 2

Total # of neighbors = 2144145
Ave neighs/atom = 497.36604
Ave special neighs/atom = 0.029227557
Neighbor list builds = 1944
Dangerous builds = 0

  unfix swp
  thermo_style custom step temp pe

next temp
jump SELF minimize_temp

  variable ftemp equal v_temp

  # Electrostatic relaxation
  fix swp swpFe atom/swap 1 1 ${rand} ${temp} ke no types 6 7
  fix swp swpFe atom/swap 1 1 2582118 ${temp} ke no types 6 7
  fix swp swpFe atom/swap 1 1 2582118 106 ke no types 6 7
  thermo 100
  thermo_style custom step v_ftemp pe f_swp[1] f_swp[2]
  run ${nsteps}
  run 972
WARNING: No fixes with time integration, atoms won't move (../verlet.cpp:60)
PPPM initialization ...
  using 12-bit tables for long-range coulomb (../kspace.cpp:340)
  G vector (1/distance) = 0.29499995
  grid = 45 45 250
  stencil order = 5
  estimated absolute RMS force accuracy = 0.00038527262
  estimated relative force accuracy = 1.160237e-06
  using double precision KISS FFT
  3d grid and FFT values/proc = 554040 378675
  generated 45 of 45 mixed pair_coeff terms from arithmetic mixing rule
Per MPI rank memory allocation (min/avg/max) = 24.35 | 35.11 | 63.71 Mbytes
Step v_ftemp PotEng f_swp[1] f_swp[2] 
   56376          106   -786144.25            0            0 
   56400          106   -786144.25           24            0 
   56500          106   -786144.25          124            0 
   56600          106   -786144.25          224            0 
   56700          106   -786144.25          324            0 
   56800          106   -786144.25          424            0 
   56900          106   -786144.25          524            0 
   57000          106   -786144.25          624            0 
   57100          106   -786144.25          724            0 
   57200          106   -786144.25          824            0 
   57300          106   -786144.25          924            0 
   57348          106   -786144.25          972            0 
Loop time of 271.135 on 4 procs for 972 steps with 4311 atoms

Performance: 0.155 ns/day, 154.969 hours/ns, 3.585 timesteps/s
94.0% CPU use with 4 MPI tasks x no OpenMP threads

MPI task timing breakdown:
Section |  min time  |  avg time  |  max time  |%varavg| %total
---------------------------------------------------------------
Pair    | 2.7867     | 7.3587     | 10.957     | 126.6 |  2.71
Bond    | 0.0013728  | 0.0030436  | 0.0074167  |   4.6 |  0.00
Kspace  | 65.794     | 69.409     | 73.974     |  41.3 | 25.60
Neigh   | 16.749     | 16.779     | 16.813     |   0.6 |  6.19
Comm    | 0.45839    | 0.52097    | 0.55994    |   5.6 |  0.19
Output  | 0.00021175 | 0.00050172 | 0.001217   |   0.0 |  0.00
Modify  | 177.02     | 177.04     | 177.05     |   0.1 | 65.30
Other   |            | 0.02394    |            |       |  0.01

Nlocal:        1077.75 ave        1494 max         657 min
Histogram: 1 1 0 0 0 0 0 0 1 1
Nghost:        8908.75 ave       11946 max        5684 min
Histogram: 1 1 0 0 0 0 0 0 0 2
Neighs:         536036 ave      798165 max      198523 min
Histogram: 1 0 0 1 0 0 0 0 0 2

Total # of neighbors = 2144145
Ave neighs/atom = 497.36604
Ave special neighs/atom = 0.029227557
Neighbor list builds = 1944
Dangerous builds = 0

  unfix swp
  thermo_style custom step temp pe

next temp
jump SELF minimize_temp

  variable ftemp equal v_temp

  # Electrostatic relaxation
  fix swp swpFe atom/swap 1 1 ${rand} ${temp} ke no types 6 7
  fix swp swpFe atom/swap 1 1 6127347 ${temp} ke no types 6 7
  fix swp swpFe atom/swap 1 1 6127347 95 ke no types 6 7
  thermo 100
  thermo_style custom step v_ftemp pe f_swp[1] f_swp[2]
  run ${nsteps}
  run 972
WARNING: No fixes with time integration, atoms won't move (../verlet.cpp:60)
PPPM initialization ...
  using 12-bit tables for long-range coulomb (../kspace.cpp:340)
  G vector (1/distance) = 0.29499995
  grid = 45 45 250
  stencil order = 5
  estimated absolute RMS force accuracy = 0.00038527262
  estimated relative force accuracy = 1.160237e-06
  using double precision KISS FFT
  3d grid and FFT values/proc = 554040 378675
  generated 45 of 45 mixed pair_coeff terms from arithmetic mixing rule
Per MPI rank memory allocation (min/avg/max) = 24.35 | 35.11 | 63.71 Mbytes
Step v_ftemp PotEng f_swp[1] f_swp[2] 
   57348           95   -786144.25            0            0 
   57400           95   -786144.25           52            0 
   57500           95   -786143.58          152            1 
   57600           95   -786143.58          252            1 
   57700           95   -786143.58          352            1 
   57800           95   -786143.58          452            1 
   57900           95   -786143.58          552            1 
   58000           95   -786143.58          652            1 
   58100           95   -786143.58          752            1 
   58200           95   -786143.58          852            1 
   58300           95   -786143.58          952            1 
   58320           95   -786143.58          972            1 
Loop time of 271.7 on 4 procs for 972 steps with 4311 atoms

Performance: 0.155 ns/day, 155.293 hours/ns, 3.577 timesteps/s
94.5% CPU use with 4 MPI tasks x no OpenMP threads

MPI task timing breakdown:
Section |  min time  |  avg time  |  max time  |%varavg| %total
---------------------------------------------------------------
Pair    | 2.757      | 7.2741     | 10.822     | 126.1 |  2.68
Bond    | 0.0010878  | 0.0026735  | 0.0068057  |   4.6 |  0.00
Kspace  | 65.618     | 69.171     | 73.689     |  40.9 | 25.46
Neigh   | 16.555     | 16.582     | 16.619     |   0.6 |  6.10
Comm    | 0.42763    | 0.47723    | 0.51004    |   5.0 |  0.18
Output  | 0.00023061 | 0.00056128 | 0.0013787  |   0.0 |  0.00
Modify  | 178.16     | 178.17     | 178.18     |   0.1 | 65.58
Other   |            | 0.02463    |            |       |  0.01

Nlocal:        1077.75 ave        1494 max         657 min
Histogram: 1 1 0 0 0 0 0 0 1 1
Nghost:        8908.75 ave       11946 max        5684 min
Histogram: 1 1 0 0 0 0 0 0 0 2
Neighs:         536036 ave      798165 max      198523 min
Histogram: 1 0 0 1 0 0 0 0 0 2

Total # of neighbors = 2144145
Ave neighs/atom = 497.36604
Ave special neighs/atom = 0.029227557
Neighbor list builds = 1944
Dangerous builds = 0

  unfix swp
  thermo_style custom step temp pe

next temp
jump SELF minimize_temp

  variable ftemp equal v_temp

  # Electrostatic relaxation
  fix swp swpFe atom/swap 1 1 ${rand} ${temp} ke no types 6 7
  fix swp swpFe atom/swap 1 1 3743981 ${temp} ke no types 6 7
  fix swp swpFe atom/swap 1 1 3743981 85 ke no types 6 7
  thermo 100
  thermo_style custom step v_ftemp pe f_swp[1] f_swp[2]
  run ${nsteps}
  run 972
WARNING: No fixes with time integration, atoms won't move (../verlet.cpp:60)
PPPM initialization ...
  using 12-bit tables for long-range coulomb (../kspace.cpp:340)
  G vector (1/distance) = 0.29499995
  grid = 45 45 250
  stencil order = 5
  estimated absolute RMS force accuracy = 0.00038527262
  estimated relative force accuracy = 1.160237e-06
  using double precision KISS FFT
  3d grid and FFT values/proc = 554040 378675
  generated 45 of 45 mixed pair_coeff terms from arithmetic mixing rule
Per MPI rank memory allocation (min/avg/max) = 24.35 | 35.11 | 63.71 Mbytes
Step v_ftemp PotEng f_swp[1] f_swp[2] 
   58320           85   -786143.58            0            0 
   58400           85   -786143.58           80            0 
   58500           85   -786143.58          180            0 
   58600           85   -786143.58          280            0 
   58700           85   -786143.58          380            0 
   58800           85   -786143.58          480            0 
   58900           85   -786143.58          580            0 
   59000           85   -786143.58          680            0 
   59100           85   -786143.58          780            0 
   59200           85   -786143.58          880            0 
   59292           85   -786144.25          972            1 
Loop time of 272.723 on 4 procs for 972 steps with 4311 atoms

Performance: 0.154 ns/day, 155.877 hours/ns, 3.564 timesteps/s
94.1% CPU use with 4 MPI tasks x no OpenMP threads

MPI task timing breakdown:
Section |  min time  |  avg time  |  max time  |%varavg| %total
---------------------------------------------------------------
Pair    | 2.7776     | 7.4291     | 11.077     | 128.8 |  2.72
Bond    | 0.0016975  | 0.0031664  | 0.0069718  |   3.9 |  0.00
Kspace  | 65.217     | 68.88      | 73.523     |  42.4 | 25.26
Neigh   | 16.769     | 16.793     | 16.828     |   0.6 |  6.16
Comm    | 0.40567    | 0.46761    | 0.5131     |   6.1 |  0.17
Output  | 0.00018802 | 0.0004494  | 0.0010759  |   0.0 |  0.00
Modify  | 179.11     | 179.13     | 179.14     |   0.1 | 65.68
Other   |            | 0.02345    |            |       |  0.01

Nlocal:        1077.75 ave        1494 max         657 min
Histogram: 1 1 0 0 0 0 0 0 1 1
Nghost:        8908.75 ave       11946 max        5684 min
Histogram: 1 1 0 0 0 0 0 0 0 2
Neighs:         536036 ave      798165 max      198523 min
Histogram: 1 0 0 1 0 0 0 0 0 2

Total # of neighbors = 2144145
Ave neighs/atom = 497.36604
Ave special neighs/atom = 0.029227557
Neighbor list builds = 1944
Dangerous builds = 0

  unfix swp
  thermo_style custom step temp pe

next temp
jump SELF minimize_temp

  variable ftemp equal v_temp

  # Electrostatic relaxation
  fix swp swpFe atom/swap 1 1 ${rand} ${temp} ke no types 6 7
  fix swp swpFe atom/swap 1 1 3273207 ${temp} ke no types 6 7
  fix swp swpFe atom/swap 1 1 3273207 76 ke no types 6 7
  thermo 100
  thermo_style custom step v_ftemp pe f_swp[1] f_swp[2]
  run ${nsteps}
  run 972
WARNING: No fixes with time integration, atoms won't move (../verlet.cpp:60)
PPPM initialization ...
  using 12-bit tables for long-range coulomb (../kspace.cpp:340)
  G vector (1/distance) = 0.29499995
  grid = 45 45 250
  stencil order = 5
  estimated absolute RMS force accuracy = 0.00038527262
  estimated relative force accuracy = 1.160237e-06
  using double precision KISS FFT
  3d grid and FFT values/proc = 554040 378675
  generated 45 of 45 mixed pair_coeff terms from arithmetic mixing rule
Per MPI rank memory allocation (min/avg/max) = 24.35 | 35.11 | 63.71 Mbytes
Step v_ftemp PotEng f_swp[1] f_swp[2] 
   59292           76   -786144.25            0            0 
   59300           76   -786144.25            8            0 
   59400           76   -786144.25          108            0 
   59500           76   -786144.25          208            0 
   59600           76   -786144.25          308            0 
   59700           76   -786144.25          408            0 
   59800           76   -786144.25          508            0 
   59900           76   -786144.25          608            0 
   60000           76   -786144.25          708            0 
   60100           76   -786144.25          808            0 
   60200           76   -786144.25          908            0 
   60264           76   -786144.25          972            0 
Loop time of 273.628 on 4 procs for 972 steps with 4311 atoms

Performance: 0.153 ns/day, 156.395 hours/ns, 3.552 timesteps/s
93.2% CPU use with 4 MPI tasks x no OpenMP threads

MPI task timing breakdown:
Section |  min time  |  avg time  |  max time  |%varavg| %total
---------------------------------------------------------------
Pair    | 2.8519     | 7.6086     | 11.399     | 130.8 |  2.78
Bond    | 0.0020172  | 0.0036576  | 0.0080866  |   4.2 |  0.00
Kspace  | 64.949     | 68.747     | 73.498     |  43.6 | 25.12
Neigh   | 17.286     | 17.308     | 17.334     |   0.4 |  6.33
Comm    | 0.56214    | 0.63395    | 0.69168    |   6.0 |  0.23
Output  | 0.00021004 | 0.0005246  | 0.0013001  |   0.0 |  0.00
Modify  | 179.27     | 179.3      | 179.33     |   0.2 | 65.53
Other   |            | 0.0247     |            |       |  0.01

Nlocal:        1077.75 ave        1494 max         657 min
Histogram: 1 1 0 0 0 0 0 0 1 1
Nghost:        8908.75 ave       11946 max        5684 min
Histogram: 1 1 0 0 0 0 0 0 0 2
Neighs:         536036 ave      798165 max      198523 min
Histogram: 1 0 0 1 0 0 0 0 0 2

Total # of neighbors = 2144145
Ave neighs/atom = 497.36604
Ave special neighs/atom = 0.029227557
Neighbor list builds = 1944
Dangerous builds = 0

  unfix swp
  thermo_style custom step temp pe

next temp
jump SELF minimize_temp

  variable ftemp equal v_temp

  # Electrostatic relaxation
  fix swp swpFe atom/swap 1 1 ${rand} ${temp} ke no types 6 7
  fix swp swpFe atom/swap 1 1 240566 ${temp} ke no types 6 7
  fix swp swpFe atom/swap 1 1 240566 68 ke no types 6 7
  thermo 100
  thermo_style custom step v_ftemp pe f_swp[1] f_swp[2]
  run ${nsteps}
  run 972
WARNING: No fixes with time integration, atoms won't move (../verlet.cpp:60)
PPPM initialization ...
  using 12-bit tables for long-range coulomb (../kspace.cpp:340)
  G vector (1/distance) = 0.29499995
  grid = 45 45 250
  stencil order = 5
  estimated absolute RMS force accuracy = 0.00038527262
  estimated relative force accuracy = 1.160237e-06
  using double precision KISS FFT
  3d grid and FFT values/proc = 554040 378675
  generated 45 of 45 mixed pair_coeff terms from arithmetic mixing rule
Per MPI rank memory allocation (min/avg/max) = 24.35 | 35.11 | 63.71 Mbytes
Step v_ftemp PotEng f_swp[1] f_swp[2] 
   60264           68   -786144.25            0            0 
   60300           68   -786144.25           36            0 
   60400           68   -786144.25          136            0 
   60500           68   -786144.25          236            0 
   60600           68   -786144.25          336            0 
   60700           68   -786144.25          436            0 
   60800           68   -786144.25          536            0 
   60900           68   -786144.25          636            0 
   61000           68   -786144.25          736            0 
   61100           68   -786144.25          836            0 
   61200           68   -786144.25          936            0 
   61236           68   -786144.25          972            0 
Loop time of 271.204 on 4 procs for 972 steps with 4311 atoms

Performance: 0.155 ns/day, 155.009 hours/ns, 3.584 timesteps/s
94.4% CPU use with 4 MPI tasks x no OpenMP threads

MPI task timing breakdown:
Section |  min time  |  avg time  |  max time  |%varavg| %total
---------------------------------------------------------------
Pair    | 2.7587     | 7.3375     | 10.968     | 127.6 |  2.71
Bond    | 0.001555   | 0.0029953  | 0.0066624  |   3.9 |  0.00
Kspace  | 65.317     | 68.952     | 73.533     |  41.6 | 25.42
Neigh   | 16.738     | 16.765     | 16.803     |   0.6 |  6.18
Comm    | 0.43461    | 0.48391    | 0.5164     |   4.9 |  0.18
Output  | 0.00020101 | 0.00048192 | 0.0011687  |   0.0 |  0.00
Modify  | 177.63     | 177.64     | 177.65     |   0.1 | 65.50
Other   |            | 0.02288    |            |       |  0.01

Nlocal:        1077.75 ave        1494 max         657 min
Histogram: 1 1 0 0 0 0 0 0 1 1
Nghost:        8908.75 ave       11946 max        5684 min
Histogram: 1 1 0 0 0 0 0 0 0 2
Neighs:         536036 ave      798165 max      198523 min
Histogram: 1 0 0 1 0 0 0 0 0 2

Total # of neighbors = 2144145
Ave neighs/atom = 497.36604
Ave special neighs/atom = 0.029227557
Neighbor list builds = 1944
Dangerous builds = 0

  unfix swp
  thermo_style custom step temp pe

next temp
jump SELF minimize_temp

  variable ftemp equal v_temp

  # Electrostatic relaxation
  fix swp swpFe atom/swap 1 1 ${rand} ${temp} ke no types 6 7
  fix swp swpFe atom/swap 1 1 7452945 ${temp} ke no types 6 7
  fix swp swpFe atom/swap 1 1 7452945 61 ke no types 6 7
  thermo 100
  thermo_style custom step v_ftemp pe f_swp[1] f_swp[2]
  run ${nsteps}
  run 972
WARNING: No fixes with time integration, atoms won't move (../verlet.cpp:60)
PPPM initialization ...
  using 12-bit tables for long-range coulomb (../kspace.cpp:340)
  G vector (1/distance) = 0.29499995
  grid = 45 45 250
  stencil order = 5
  estimated absolute RMS force accuracy = 0.00038527262
  estimated relative force accuracy = 1.160237e-06
  using double precision KISS FFT
  3d grid and FFT values/proc = 554040 378675
  generated 45 of 45 mixed pair_coeff terms from arithmetic mixing rule
Per MPI rank memory allocation (min/avg/max) = 24.35 | 35.11 | 63.71 Mbytes
Step v_ftemp PotEng f_swp[1] f_swp[2] 
   61236           61   -786144.25            0            0 
   61300           61   -786144.25           64            0 
   61400           61   -786144.25          164            0 
   61500           61   -786144.25          264            0 
   61600           61   -786144.25          364            0 
   61700           61   -786144.25          464            0 
   61800           61   -786144.25          564            0 
   61900           61   -786144.25          664            0 
   62000           61   -786144.25          764            0 
   62100           61   -786144.25          864            0 
   62200           61   -786144.25          964            0 
   62208           61   -786144.25          972            0 
Loop time of 270.729 on 4 procs for 972 steps with 4311 atoms

Performance: 0.155 ns/day, 154.738 hours/ns, 3.590 timesteps/s
94.2% CPU use with 4 MPI tasks x no OpenMP threads

MPI task timing breakdown:
Section |  min time  |  avg time  |  max time  |%varavg| %total
---------------------------------------------------------------
Pair    | 2.7603     | 7.283      | 10.857     | 126.1 |  2.69
Bond    | 0.0014025  | 0.002892   | 0.0065743  |   4.0 |  0.00
Kspace  | 65.04      | 68.619     | 73.144     |  41.1 | 25.35
Neigh   | 16.71      | 16.736     | 16.772     |   0.6 |  6.18
Comm    | 0.43052    | 0.47939    | 0.51176    |   5.0 |  0.18
Output  | 0.000222   | 0.00055357 | 0.0013459  |   0.0 |  0.00
Modify  | 177.57     | 177.58     | 177.6      |   0.1 | 65.59
Other   |            | 0.02436    |            |       |  0.01

Nlocal:        1077.75 ave        1494 max         657 min
Histogram: 1 1 0 0 0 0 0 0 1 1
Nghost:        8908.75 ave       11946 max        5684 min
Histogram: 1 1 0 0 0 0 0 0 0 2
Neighs:         536036 ave      798165 max      198523 min
Histogram: 1 0 0 1 0 0 0 0 0 2

Total # of neighbors = 2144145
Ave neighs/atom = 497.36604
Ave special neighs/atom = 0.029227557
Neighbor list builds = 1944
Dangerous builds = 0

  unfix swp
  thermo_style custom step temp pe

next temp
jump SELF minimize_temp

  variable ftemp equal v_temp

  # Electrostatic relaxation
  fix swp swpFe atom/swap 1 1 ${rand} ${temp} ke no types 6 7
  fix swp swpFe atom/swap 1 1 9853395 ${temp} ke no types 6 7
  fix swp swpFe atom/swap 1 1 9853395 54 ke no types 6 7
  thermo 100
  thermo_style custom step v_ftemp pe f_swp[1] f_swp[2]
  run ${nsteps}
  run 972
WARNING: No fixes with time integration, atoms won't move (../verlet.cpp:60)
PPPM initialization ...
  using 12-bit tables for long-range coulomb (../kspace.cpp:340)
  G vector (1/distance) = 0.29499995
  grid = 45 45 250
  stencil order = 5
  estimated absolute RMS force accuracy = 0.00038527262
  estimated relative force accuracy = 1.160237e-06
  using double precision KISS FFT
  3d grid and FFT values/proc = 554040 378675
  generated 45 of 45 mixed pair_coeff terms from arithmetic mixing rule
Per MPI rank memory allocation (min/avg/max) = 24.35 | 35.11 | 63.71 Mbytes
Step v_ftemp PotEng f_swp[1] f_swp[2] 
   62208           54   -786144.25            0            0 
   62300           54   -786144.25           92            0 
   62400           54   -786144.25          192            0 
   62500           54   -786144.25          292            0 
   62600           54   -786144.25          392            0 
   62700           54   -786144.25          492            0 
   62800           54   -786144.25          592            0 
   62900           54   -786144.25          692            0 
   63000           54   -786144.25          792            0 
   63100           54   -786144.25          892            0 
   63180           54   -786144.25          972            0 
Loop time of 271.629 on 4 procs for 972 steps with 4311 atoms

Performance: 0.155 ns/day, 155.252 hours/ns, 3.578 timesteps/s
94.2% CPU use with 4 MPI tasks x no OpenMP threads

MPI task timing breakdown:
Section |  min time  |  avg time  |  max time  |%varavg| %total
---------------------------------------------------------------
Pair    | 2.7933     | 7.3432     | 10.909     | 126.7 |  2.70
Bond    | 0.0012337  | 0.0027639  | 0.0067476  |   4.4 |  0.00
Kspace  | 65.635     | 69.201     | 73.748     |  41.3 | 25.48
Neigh   | 16.753     | 16.779     | 16.816     |   0.6 |  6.18
Comm    | 0.45752    | 0.5204     | 0.56075    |   5.5 |  0.19
Output  | 0.00019001 | 0.00047026 | 0.0011415  |   0.0 |  0.00
Modify  | 177.74     | 177.76     | 177.78     |   0.1 | 65.44
Other   |            | 0.02338    |            |       |  0.01

Nlocal:        1077.75 ave        1494 max         657 min
Histogram: 1 1 0 0 0 0 0 0 1 1
Nghost:        8908.75 ave       11946 max        5684 min
Histogram: 1 1 0 0 0 0 0 0 0 2
Neighs:         536036 ave      798165 max      198523 min
Histogram: 1 0 0 1 0 0 0 0 0 2

Total # of neighbors = 2144145
Ave neighs/atom = 497.36604
Ave special neighs/atom = 0.029227557
Neighbor list builds = 1944
Dangerous builds = 0

  unfix swp
  thermo_style custom step temp pe

next temp
jump SELF minimize_temp

  variable ftemp equal v_temp

  # Electrostatic relaxation
  fix swp swpFe atom/swap 1 1 ${rand} ${temp} ke no types 6 7
  fix swp swpFe atom/swap 1 1 8452553 ${temp} ke no types 6 7
  fix swp swpFe atom/swap 1 1 8452553 48 ke no types 6 7
  thermo 100
  thermo_style custom step v_ftemp pe f_swp[1] f_swp[2]
  run ${nsteps}
  run 972
WARNING: No fixes with time integration, atoms won't move (../verlet.cpp:60)
PPPM initialization ...
  using 12-bit tables for long-range coulomb (../kspace.cpp:340)
  G vector (1/distance) = 0.29499995
  grid = 45 45 250
  stencil order = 5
  estimated absolute RMS force accuracy = 0.00038527262
  estimated relative force accuracy = 1.160237e-06
  using double precision KISS FFT
  3d grid and FFT values/proc = 554040 378675
  generated 45 of 45 mixed pair_coeff terms from arithmetic mixing rule
Per MPI rank memory allocation (min/avg/max) = 24.35 | 35.11 | 63.71 Mbytes
Step v_ftemp PotEng f_swp[1] f_swp[2] 
   63180           48   -786144.25            0            0 
   63200           48   -786144.25           20            0 
   63300           48   -786144.25          120            0 
   63400           48   -786144.25          220            0 
   63500           48   -786144.25          320            0 
   63600           48   -786144.25          420            0 
   63700           48   -786144.25          520            0 
   63800           48   -786144.25          620            0 
   63900           48   -786144.25          720            0 
   64000           48   -786144.25          820            0 
   64100           48   -786144.25          920            0 
   64152           48   -786144.25          972            0 
Loop time of 270.109 on 4 procs for 972 steps with 4311 atoms

Performance: 0.155 ns/day, 154.383 hours/ns, 3.599 timesteps/s
94.5% CPU use with 4 MPI tasks x no OpenMP threads

MPI task timing breakdown:
Section |  min time  |  avg time  |  max time  |%varavg| %total
---------------------------------------------------------------
Pair    | 2.7634     | 7.3478     | 11.02      | 128.0 |  2.72
Bond    | 0.0014439  | 0.0027916  | 0.0065282  |   4.1 |  0.00
Kspace  | 65.071     | 68.748     | 73.334     |  41.9 | 25.45
Neigh   | 16.69      | 16.716     | 16.752     |   0.6 |  6.19
Comm    | 0.4355     | 0.48509    | 0.51753    |   4.9 |  0.18
Output  | 0.00022779 | 0.00059882 | 0.001488   |   0.0 |  0.00
Modify  | 176.77     | 176.79     | 176.8      |   0.1 | 65.45
Other   |            | 0.02274    |            |       |  0.01

Nlocal:        1077.75 ave        1494 max         657 min
Histogram: 1 1 0 0 0 0 0 0 1 1
Nghost:        8908.75 ave       11946 max        5684 min
Histogram: 1 1 0 0 0 0 0 0 0 2
Neighs:         536036 ave      798165 max      198523 min
Histogram: 1 0 0 1 0 0 0 0 0 2

Total # of neighbors = 2144145
Ave neighs/atom = 497.36604
Ave special neighs/atom = 0.029227557
Neighbor list builds = 1944
Dangerous builds = 0

  unfix swp
  thermo_style custom step temp pe

next temp
jump SELF minimize_temp

  variable ftemp equal v_temp

  # Electrostatic relaxation
  fix swp swpFe atom/swap 1 1 ${rand} ${temp} ke no types 6 7
  fix swp swpFe atom/swap 1 1 8678619 ${temp} ke no types 6 7
  fix swp swpFe atom/swap 1 1 8678619 43 ke no types 6 7
  thermo 100
  thermo_style custom step v_ftemp pe f_swp[1] f_swp[2]
  run ${nsteps}
  run 972
WARNING: No fixes with time integration, atoms won't move (../verlet.cpp:60)
PPPM initialization ...
  using 12-bit tables for long-range coulomb (../kspace.cpp:340)
  G vector (1/distance) = 0.29499995
  grid = 45 45 250
  stencil order = 5
  estimated absolute RMS force accuracy = 0.00038527262
  estimated relative force accuracy = 1.160237e-06
  using double precision KISS FFT
  3d grid and FFT values/proc = 554040 378675
  generated 45 of 45 mixed pair_coeff terms from arithmetic mixing rule
Per MPI rank memory allocation (min/avg/max) = 24.35 | 35.11 | 63.71 Mbytes
Step v_ftemp PotEng f_swp[1] f_swp[2] 
   64152           43   -786144.25            0            0 
   64200           43   -786144.25           48            0 
   64300           43   -786144.25          148            0 
   64400           43   -786144.25          248            0 
   64500           43   -786144.25          348            0 
   64600           43   -786144.25          448            0 
   64700           43   -786144.25          548            0 
   64800           43   -786144.25          648            0 
   64900           43   -786144.25          748            0 
   65000           43   -786144.25          848            0 
   65100           43   -786144.25          948            0 
   65124           43   -786144.25          972            0 
Loop time of 271.055 on 4 procs for 972 steps with 4311 atoms

Performance: 0.155 ns/day, 154.924 hours/ns, 3.586 timesteps/s
94.4% CPU use with 4 MPI tasks x no OpenMP threads

MPI task timing breakdown:
Section |  min time  |  avg time  |  max time  |%varavg| %total
---------------------------------------------------------------
Pair    | 2.7572     | 7.2762     | 10.83      | 126.3 |  2.68
Bond    | 0.0012654  | 0.0027289  | 0.0066117  |   4.3 |  0.00
Kspace  | 64.912     | 68.47      | 72.991     |  41.2 | 25.26
Neigh   | 16.693     | 16.72      | 16.758     |   0.7 |  6.17
Comm    | 0.44273    | 0.49401    | 0.52735    |   5.0 |  0.18
Output  | 0.00023656 | 0.00061375 | 0.0014405  |   0.0 |  0.00
Modify  | 178.06     | 178.07     | 178.08     |   0.1 | 65.69
Other   |            | 0.02415    |            |       |  0.01

Nlocal:        1077.75 ave        1494 max         657 min
Histogram: 1 1 0 0 0 0 0 0 1 1
Nghost:        8908.75 ave       11946 max        5684 min
Histogram: 1 1 0 0 0 0 0 0 0 2
Neighs:         536036 ave      798165 max      198523 min
Histogram: 1 0 0 1 0 0 0 0 0 2

Total # of neighbors = 2144145
Ave neighs/atom = 497.36604
Ave special neighs/atom = 0.029227557
Neighbor list builds = 1944
Dangerous builds = 0

  unfix swp
  thermo_style custom step temp pe

next temp
jump SELF minimize_temp

  variable ftemp equal v_temp

  # Electrostatic relaxation
  fix swp swpFe atom/swap 1 1 ${rand} ${temp} ke no types 6 7
  fix swp swpFe atom/swap 1 1 2634645 ${temp} ke no types 6 7
  fix swp swpFe atom/swap 1 1 2634645 38 ke no types 6 7
  thermo 100
  thermo_style custom step v_ftemp pe f_swp[1] f_swp[2]
  run ${nsteps}
  run 972
WARNING: No fixes with time integration, atoms won't move (../verlet.cpp:60)
PPPM initialization ...
  using 12-bit tables for long-range coulomb (../kspace.cpp:340)
  G vector (1/distance) = 0.29499995
  grid = 45 45 250
  stencil order = 5
  estimated absolute RMS force accuracy = 0.00038527262
  estimated relative force accuracy = 1.160237e-06
  using double precision KISS FFT
  3d grid and FFT values/proc = 554040 378675
  generated 45 of 45 mixed pair_coeff terms from arithmetic mixing rule
Per MPI rank memory allocation (min/avg/max) = 24.35 | 35.11 | 63.71 Mbytes
Step v_ftemp PotEng f_swp[1] f_swp[2] 
   65124           38   -786144.25            0            0 
   65200           38   -786144.25           76            0 
   65300           38   -786144.25          176            0 
   65400           38   -786144.25          276            0 
   65500           38   -786144.25          376            0 
   65600           38   -786144.25          476            0 
   65700           38   -786144.25          576            0 
   65800           38   -786144.25          676            0 
   65900           38   -786144.25          776            0 
   66000           38   -786144.25          876            0 
   66096           38   -786144.25          972            0 
Loop time of 266.95 on 4 procs for 972 steps with 4311 atoms

Performance: 0.157 ns/day, 152.578 hours/ns, 3.641 timesteps/s
94.5% CPU use with 4 MPI tasks x no OpenMP threads

MPI task timing breakdown:
Section |  min time  |  avg time  |  max time  |%varavg| %total
---------------------------------------------------------------
Pair    | 2.8455     | 7.5184     | 11.268     | 128.7 |  2.82
Bond    | 0.001602   | 0.0038066  | 0.0090826  |   5.0 |  0.00
Kspace  | 63.839     | 67.592     | 72.266     |  42.9 | 25.32
Neigh   | 16.55      | 16.573     | 16.604     |   0.6 |  6.21
Comm    | 0.37485    | 0.41505    | 0.44285    |   4.5 |  0.16
Output  | 0.00018564 | 0.00046866 | 0.0011663  |   0.0 |  0.00
Modify  | 174.81     | 174.82     | 174.83     |   0.1 | 65.49
Other   |            | 0.02343    |            |       |  0.01

Nlocal:        1077.75 ave        1494 max         657 min
Histogram: 1 1 0 0 0 0 0 0 1 1
Nghost:        8908.75 ave       11946 max        5684 min
Histogram: 1 1 0 0 0 0 0 0 0 2
Neighs:         536036 ave      798165 max      198523 min
Histogram: 1 0 0 1 0 0 0 0 0 2

Total # of neighbors = 2144145
Ave neighs/atom = 497.36604
Ave special neighs/atom = 0.029227557
Neighbor list builds = 1944
Dangerous builds = 0

  unfix swp
  thermo_style custom step temp pe

next temp
jump SELF minimize_temp

  variable ftemp equal v_temp

  # Electrostatic relaxation
  fix swp swpFe atom/swap 1 1 ${rand} ${temp} ke no types 6 7
  fix swp swpFe atom/swap 1 1 805225 ${temp} ke no types 6 7
  fix swp swpFe atom/swap 1 1 805225 34 ke no types 6 7
  thermo 100
  thermo_style custom step v_ftemp pe f_swp[1] f_swp[2]
  run ${nsteps}
  run 972
WARNING: No fixes with time integration, atoms won't move (../verlet.cpp:60)
PPPM initialization ...
  using 12-bit tables for long-range coulomb (../kspace.cpp:340)
  G vector (1/distance) = 0.29499995
  grid = 45 45 250
  stencil order = 5
  estimated absolute RMS force accuracy = 0.00038527262
  estimated relative force accuracy = 1.160237e-06
  using double precision KISS FFT
  3d grid and FFT values/proc = 554040 378675
  generated 45 of 45 mixed pair_coeff terms from arithmetic mixing rule
Per MPI rank memory allocation (min/avg/max) = 24.35 | 35.11 | 63.71 Mbytes
Step v_ftemp PotEng f_swp[1] f_swp[2] 
   66096           34   -786144.25            0            0 
   66100           34   -786144.25            4            0 
   66200           34   -786144.25          104            0 
   66300           34   -786144.25          204            0 
   66400           34   -786144.25          304            0 
   66500           34   -786144.25          404            0 
   66600           34   -786144.25          504            0 
   66700           34   -786144.25          604            0 
   66800           34   -786144.25          704            0 
   66900           34   -786144.25          804            0 
   67000           34   -786144.25          904            0 
   67068           34   -786144.25          972            0 
Loop time of 269.699 on 4 procs for 972 steps with 4311 atoms

Performance: 0.156 ns/day, 154.149 hours/ns, 3.604 timesteps/s
94.3% CPU use with 4 MPI tasks x no OpenMP threads

MPI task timing breakdown:
Section |  min time  |  avg time  |  max time  |%varavg| %total
---------------------------------------------------------------
Pair    | 2.7978     | 7.279      | 10.779     | 124.9 |  2.70
Bond    | 0.0009651  | 0.0028545  | 0.0071587  |   4.7 |  0.00
Kspace  | 64.995     | 68.499     | 72.982     |  40.7 | 25.40
Neigh   | 16.599     | 16.626     | 16.662     |   0.6 |  6.16
Comm    | 0.443      | 0.49245    | 0.52502    |   4.9 |  0.18
Output  | 0.00020501 | 0.00049656 | 0.0012096  |   0.0 |  0.00
Modify  | 176.76     | 176.78     | 176.79     |   0.1 | 65.55
Other   |            | 0.02408    |            |       |  0.01

Nlocal:        1077.75 ave        1494 max         657 min
Histogram: 1 1 0 0 0 0 0 0 1 1
Nghost:        8908.75 ave       11946 max        5684 min
Histogram: 1 1 0 0 0 0 0 0 0 2
Neighs:         536036 ave      798165 max      198523 min
Histogram: 1 0 0 1 0 0 0 0 0 2

Total # of neighbors = 2144145
Ave neighs/atom = 497.36604
Ave special neighs/atom = 0.029227557
Neighbor list builds = 1944
Dangerous builds = 0

  unfix swp
  thermo_style custom step temp pe

next temp
jump SELF minimize_temp

  variable ftemp equal v_temp

  # Electrostatic relaxation
  fix swp swpFe atom/swap 1 1 ${rand} ${temp} ke no types 6 7
  fix swp swpFe atom/swap 1 1 5763377 ${temp} ke no types 6 7
  fix swp swpFe atom/swap 1 1 5763377 30 ke no types 6 7
  thermo 100
  thermo_style custom step v_ftemp pe f_swp[1] f_swp[2]
  run ${nsteps}
  run 972
WARNING: No fixes with time integration, atoms won't move (../verlet.cpp:60)
PPPM initialization ...
  using 12-bit tables for long-range coulomb (../kspace.cpp:340)
  G vector (1/distance) = 0.29499995
  grid = 45 45 250
  stencil order = 5
  estimated absolute RMS force accuracy = 0.00038527262
  estimated relative force accuracy = 1.160237e-06
  using double precision KISS FFT
  3d grid and FFT values/proc = 554040 378675
  generated 45 of 45 mixed pair_coeff terms from arithmetic mixing rule
Per MPI rank memory allocation (min/avg/max) = 24.35 | 35.11 | 63.71 Mbytes
Step v_ftemp PotEng f_swp[1] f_swp[2] 
   67068           30   -786144.25            0            0 
   67100           30   -786144.25           32            0 
   67200           30   -786144.25          132            0 
   67300           30   -786144.25          232            0 
   67400           30   -786144.25          332            0 
   67500           30   -786144.25          432            0 
   67600           30   -786144.25          532            0 
   67700           30   -786144.25          632            0 
   67800           30   -786144.25          732            0 
   67900           30   -786144.25          832            0 
   68000           30   -786144.25          932            0 
   68040           30   -786144.25          972            0 
Loop time of 271.044 on 4 procs for 972 steps with 4311 atoms

Performance: 0.155 ns/day, 154.918 hours/ns, 3.586 timesteps/s
94.6% CPU use with 4 MPI tasks x no OpenMP threads

MPI task timing breakdown:
Section |  min time  |  avg time  |  max time  |%varavg| %total
---------------------------------------------------------------
Pair    | 2.7423     | 7.242      | 10.797     | 125.7 |  2.67
Bond    | 0.0011544  | 0.0027862  | 0.0067015  |   4.3 |  0.00
Kspace  | 65.288     | 68.848     | 73.349     |  40.8 | 25.40
Neigh   | 16.647     | 16.674     | 16.713     |   0.7 |  6.15
Comm    | 0.44671    | 0.49906    | 0.53262    |   5.1 |  0.18
Output  | 0.00033103 | 0.00063969 | 0.0013805  |   0.0 |  0.00
Modify  | 177.74     | 177.75     | 177.77     |   0.1 | 65.58
Other   |            | 0.02438    |            |       |  0.01

Nlocal:        1077.75 ave        1494 max         657 min
Histogram: 1 1 0 0 0 0 0 0 1 1
Nghost:        8908.75 ave       11946 max        5684 min
Histogram: 1 1 0 0 0 0 0 0 0 2
Neighs:         536036 ave      798165 max      198523 min
Histogram: 1 0 0 1 0 0 0 0 0 2

Total # of neighbors = 2144145
Ave neighs/atom = 497.36604
Ave special neighs/atom = 0.029227557
Neighbor list builds = 1944
Dangerous builds = 0

  unfix swp
  thermo_style custom step temp pe

next temp
jump SELF minimize_temp

  variable ftemp equal v_temp

  # Electrostatic relaxation
  fix swp swpFe atom/swap 1 1 ${rand} ${temp} ke no types 6 7
  fix swp swpFe atom/swap 1 1 9067551 ${temp} ke no types 6 7
  fix swp swpFe atom/swap 1 1 9067551 27 ke no types 6 7
  thermo 100
  thermo_style custom step v_ftemp pe f_swp[1] f_swp[2]
  run ${nsteps}
  run 972
WARNING: No fixes with time integration, atoms won't move (../verlet.cpp:60)
PPPM initialization ...
  using 12-bit tables for long-range coulomb (../kspace.cpp:340)
  G vector (1/distance) = 0.29499995
  grid = 45 45 250
  stencil order = 5
  estimated absolute RMS force accuracy = 0.00038527262
  estimated relative force accuracy = 1.160237e-06
  using double precision KISS FFT
  3d grid and FFT values/proc = 554040 378675
  generated 45 of 45 mixed pair_coeff terms from arithmetic mixing rule
Per MPI rank memory allocation (min/avg/max) = 24.35 | 35.11 | 63.71 Mbytes
Step v_ftemp PotEng f_swp[1] f_swp[2] 
   68040           27   -786144.25            0            0 
   68100           27   -786144.25           60            0 
   68200           27   -786144.25          160            0 
   68300           27   -786144.25          260            0 
   68400           27   -786144.25          360            0 
   68500           27   -786144.25          460            0 
   68600           27   -786144.25          560            0 
   68700           27   -786144.25          660            0 
   68800           27   -786144.25          760            0 
   68900           27   -786144.25          860            0 
   69000           27   -786144.25          960            0 
   69012           27   -786144.25          972            0 
Loop time of 272.042 on 4 procs for 972 steps with 4311 atoms

Performance: 0.154 ns/day, 155.488 hours/ns, 3.573 timesteps/s
94.6% CPU use with 4 MPI tasks x no OpenMP threads

MPI task timing breakdown:
Section |  min time  |  avg time  |  max time  |%varavg| %total
---------------------------------------------------------------
Pair    | 2.7621     | 7.2408     | 10.801     | 125.4 |  2.66
Bond    | 0.0012184  | 0.0028057  | 0.0066268  |   4.2 |  0.00
Kspace  | 65.806     | 69.371     | 73.851     |  40.6 | 25.50
Neigh   | 16.61      | 16.637     | 16.675     |   0.7 |  6.12
Comm    | 0.44481    | 0.49708    | 0.53018    |   5.0 |  0.18
Output  | 0.00020052 | 0.0005444  | 0.0014213  |   0.0 |  0.00
Modify  | 178.26     | 178.27     | 178.28     |   0.1 | 65.53
Other   |            | 0.02333    |            |       |  0.01

Nlocal:        1077.75 ave        1494 max         657 min
Histogram: 1 1 0 0 0 0 0 0 1 1
Nghost:        8908.75 ave       11946 max        5684 min
Histogram: 1 1 0 0 0 0 0 0 0 2
Neighs:         536036 ave      798165 max      198523 min
Histogram: 1 0 0 1 0 0 0 0 0 2

Total # of neighbors = 2144145
Ave neighs/atom = 497.36604
Ave special neighs/atom = 0.029227557
Neighbor list builds = 1944
Dangerous builds = 0

  unfix swp
  thermo_style custom step temp pe

next temp
jump SELF minimize_temp

  variable ftemp equal v_temp

  # Electrostatic relaxation
  fix swp swpFe atom/swap 1 1 ${rand} ${temp} ke no types 6 7
  fix swp swpFe atom/swap 1 1 8558588 ${temp} ke no types 6 7
  fix swp swpFe atom/swap 1 1 8558588 24 ke no types 6 7
  thermo 100
  thermo_style custom step v_ftemp pe f_swp[1] f_swp[2]
  run ${nsteps}
  run 972
WARNING: No fixes with time integration, atoms won't move (../verlet.cpp:60)
PPPM initialization ...
  using 12-bit tables for long-range coulomb (../kspace.cpp:340)
  G vector (1/distance) = 0.29499995
  grid = 45 45 250
  stencil order = 5
  estimated absolute RMS force accuracy = 0.00038527262
  estimated relative force accuracy = 1.160237e-06
  using double precision KISS FFT
  3d grid and FFT values/proc = 554040 378675
  generated 45 of 45 mixed pair_coeff terms from arithmetic mixing rule
Per MPI rank memory allocation (min/avg/max) = 24.35 | 35.11 | 63.71 Mbytes
Step v_ftemp PotEng f_swp[1] f_swp[2] 
   69012           24   -786144.25            0            0 
   69100           24   -786144.25           88            0 
   69200           24   -786144.25          188            0 
   69300           24   -786144.25          288            0 
   69400           24   -786144.25          388            0 
   69500           24   -786144.25          488            0 
   69600           24   -786144.25          588            0 
   69700           24   -786144.25          688            0 
   69800           24   -786144.25          788            0 
   69900           24   -786144.25          888            0 
   69984           24   -786144.25          972            0 
Loop time of 270.701 on 4 procs for 972 steps with 4311 atoms

Performance: 0.155 ns/day, 154.722 hours/ns, 3.591 timesteps/s
94.7% CPU use with 4 MPI tasks x no OpenMP threads

MPI task timing breakdown:
Section |  min time  |  avg time  |  max time  |%varavg| %total
---------------------------------------------------------------
Pair    | 2.7668     | 7.3074     | 10.926     | 126.4 |  2.70
Bond    | 0.0011409  | 0.0029029  | 0.0066725  |   4.1 |  0.00
Kspace  | 64.98      | 68.604     | 73.146     |  41.3 | 25.34
Neigh   | 16.495     | 16.52      | 16.554     |   0.6 |  6.10
Comm    | 0.41339    | 0.4612     | 0.49322    |   4.9 |  0.17
Output  | 0.00018493 | 0.00050664 | 0.0013213  |   0.0 |  0.00
Modify  | 177.77     | 177.78     | 177.79     |   0.1 | 65.67
Other   |            | 0.02433    |            |       |  0.01

Nlocal:        1077.75 ave        1494 max         657 min
Histogram: 1 1 0 0 0 0 0 0 1 1
Nghost:        8908.75 ave       11946 max        5684 min
Histogram: 1 1 0 0 0 0 0 0 0 2
Neighs:         536036 ave      798165 max      198523 min
Histogram: 1 0 0 1 0 0 0 0 0 2

Total # of neighbors = 2144145
Ave neighs/atom = 497.36604
Ave special neighs/atom = 0.029227557
Neighbor list builds = 1944
Dangerous builds = 0

  unfix swp
  thermo_style custom step temp pe

next temp
jump SELF minimize_temp

  variable ftemp equal v_temp

  # Electrostatic relaxation
  fix swp swpFe atom/swap 1 1 ${rand} ${temp} ke no types 6 7
  fix swp swpFe atom/swap 1 1 7745743 ${temp} ke no types 6 7
  fix swp swpFe atom/swap 1 1 7745743 21 ke no types 6 7
  thermo 100
  thermo_style custom step v_ftemp pe f_swp[1] f_swp[2]
  run ${nsteps}
  run 972
WARNING: No fixes with time integration, atoms won't move (../verlet.cpp:60)
PPPM initialization ...
  using 12-bit tables for long-range coulomb (../kspace.cpp:340)
  G vector (1/distance) = 0.29499995
  grid = 45 45 250
  stencil order = 5
  estimated absolute RMS force accuracy = 0.00038527262
  estimated relative force accuracy = 1.160237e-06
  using double precision KISS FFT
  3d grid and FFT values/proc = 554040 378675
  generated 45 of 45 mixed pair_coeff terms from arithmetic mixing rule
Per MPI rank memory allocation (min/avg/max) = 24.35 | 35.11 | 63.71 Mbytes
Step v_ftemp PotEng f_swp[1] f_swp[2] 
   69984           21   -786144.25            0            0 
   70000           21   -786144.25           16            0 
   70100           21   -786144.25          116            0 
   70200           21   -786144.25          216            0 
   70300           21   -786144.25          316            0 
   70400           21   -786144.25          416            0 
   70500           21   -786144.25          516            0 
   70600           21   -786144.25          616            0 
   70700           21   -786144.25          716            0 
   70800           21   -786144.25          816            0 
   70900           21   -786144.25          916            0 
   70956           21   -786144.25          972            0 
Loop time of 266.278 on 4 procs for 972 steps with 4311 atoms

Performance: 0.158 ns/day, 152.194 hours/ns, 3.650 timesteps/s
94.9% CPU use with 4 MPI tasks x no OpenMP threads

MPI task timing breakdown:
Section |  min time  |  avg time  |  max time  |%varavg| %total
---------------------------------------------------------------
Pair    | 2.7855     | 7.2775     | 10.79      | 124.9 |  2.73
Bond    | 0.00090014 | 0.0027705  | 0.0071949  |   4.9 |  0.00
Kspace  | 62.794     | 66.311     | 70.805     |  41.4 | 24.90
Neigh   | 16.862     | 16.889     | 16.928     |   0.7 |  6.34
Comm    | 0.48922    | 0.5462     | 0.58192    |   5.2 |  0.21
Output  | 0.00022295 | 0.00058297 | 0.0014674  |   0.0 |  0.00
Modify  | 175.21     | 175.23     | 175.24     |   0.1 | 65.81
Other   |            | 0.02602    |            |       |  0.01

Nlocal:        1077.75 ave        1494 max         657 min
Histogram: 1 1 0 0 0 0 0 0 1 1
Nghost:        8908.75 ave       11946 max        5684 min
Histogram: 1 1 0 0 0 0 0 0 0 2
Neighs:         536036 ave      798165 max      198523 min
Histogram: 1 0 0 1 0 0 0 0 0 2

Total # of neighbors = 2144145
Ave neighs/atom = 497.36604
Ave special neighs/atom = 0.029227557
Neighbor list builds = 1944
Dangerous builds = 0

  unfix swp
  thermo_style custom step temp pe

next temp
jump SELF minimize_temp

  variable ftemp equal v_temp

  # Electrostatic relaxation
  fix swp swpFe atom/swap 1 1 ${rand} ${temp} ke no types 6 7
  fix swp swpFe atom/swap 1 1 303549 ${temp} ke no types 6 7
  fix swp swpFe atom/swap 1 1 303549 18 ke no types 6 7
  thermo 100
  thermo_style custom step v_ftemp pe f_swp[1] f_swp[2]
  run ${nsteps}
  run 972
WARNING: No fixes with time integration, atoms won't move (../verlet.cpp:60)
PPPM initialization ...
  using 12-bit tables for long-range coulomb (../kspace.cpp:340)
  G vector (1/distance) = 0.29499995
  grid = 45 45 250
  stencil order = 5
  estimated absolute RMS force accuracy = 0.00038527262
  estimated relative force accuracy = 1.160237e-06
  using double precision KISS FFT
  3d grid and FFT values/proc = 554040 378675
  generated 45 of 45 mixed pair_coeff terms from arithmetic mixing rule
Per MPI rank memory allocation (min/avg/max) = 24.35 | 35.11 | 63.71 Mbytes
Step v_ftemp PotEng f_swp[1] f_swp[2] 
   70956           18   -786144.25            0            0 
   71000           18   -786144.25           44            0 
   71100           18   -786144.25          144            0 
   71200           18   -786144.25          244            0 
   71300           18   -786144.25          344            0 
   71400           18   -786144.25          444            0 
   71500           18   -786144.25          544            0 
   71600           18   -786144.25          644            0 
   71700           18   -786144.25          744            0 
   71800           18   -786144.25          844            0 
   71900           18   -786144.25          944            0 
   71928           18   -786144.25          972            0 
Loop time of 272.168 on 4 procs for 972 steps with 4311 atoms

Performance: 0.154 ns/day, 155.560 hours/ns, 3.571 timesteps/s
94.3% CPU use with 4 MPI tasks x no OpenMP threads

MPI task timing breakdown:
Section |  min time  |  avg time  |  max time  |%varavg| %total
---------------------------------------------------------------
Pair    | 2.7894     | 7.2688     | 10.84      | 125.4 |  2.67
Bond    | 0.0012616  | 0.0027631  | 0.0065458  |   4.2 |  0.00
Kspace  | 65.725     | 69.301     | 73.782     |  40.7 | 25.46
Neigh   | 16.749     | 16.775     | 16.812     |   0.6 |  6.16
Comm    | 0.44451    | 0.49436    | 0.52743    |   4.9 |  0.18
Output  | 0.000206   | 0.00050378 | 0.0012152  |   0.0 |  0.00
Modify  | 178.29     | 178.3      | 178.32     |   0.1 | 65.51
Other   |            | 0.02329    |            |       |  0.01

Nlocal:        1077.75 ave        1494 max         657 min
Histogram: 1 1 0 0 0 0 0 0 1 1
Nghost:        8908.75 ave       11946 max        5684 min
Histogram: 1 1 0 0 0 0 0 0 0 2
Neighs:         536036 ave      798165 max      198523 min
Histogram: 1 0 0 1 0 0 0 0 0 2

Total # of neighbors = 2144145
Ave neighs/atom = 497.36604
Ave special neighs/atom = 0.029227557
Neighbor list builds = 1944
Dangerous builds = 0

  unfix swp
  thermo_style custom step temp pe

next temp
jump SELF minimize_temp

  variable ftemp equal v_temp

  # Electrostatic relaxation
  fix swp swpFe atom/swap 1 1 ${rand} ${temp} ke no types 6 7
  fix swp swpFe atom/swap 1 1 2195032 ${temp} ke no types 6 7
  fix swp swpFe atom/swap 1 1 2195032 16 ke no types 6 7
  thermo 100
  thermo_style custom step v_ftemp pe f_swp[1] f_swp[2]
  run ${nsteps}
  run 972
WARNING: No fixes with time integration, atoms won't move (../verlet.cpp:60)
PPPM initialization ...
  using 12-bit tables for long-range coulomb (../kspace.cpp:340)
  G vector (1/distance) = 0.29499995
  grid = 45 45 250
  stencil order = 5
  estimated absolute RMS force accuracy = 0.00038527262
  estimated relative force accuracy = 1.160237e-06
  using double precision KISS FFT
  3d grid and FFT values/proc = 554040 378675
  generated 45 of 45 mixed pair_coeff terms from arithmetic mixing rule
Per MPI rank memory allocation (min/avg/max) = 24.35 | 35.11 | 63.71 Mbytes
Step v_ftemp PotEng f_swp[1] f_swp[2] 
   71928           16   -786144.25            0            0 
   72000           16   -786144.25           72            0 
   72100           16   -786144.25          172            0 
   72200           16   -786144.25          272            0 
   72300           16   -786144.25          372            0 
   72400           16   -786144.25          472            0 
   72500           16   -786144.25          572            0 
   72600           16   -786144.25          672            0 
   72700           16   -786144.25          772            0 
   72800           16   -786144.25          872            0 
   72900           16   -786144.25          972            0 
Loop time of 268.925 on 4 procs for 972 steps with 4311 atoms

Performance: 0.156 ns/day, 153.707 hours/ns, 3.614 timesteps/s
94.3% CPU use with 4 MPI tasks x no OpenMP threads

MPI task timing breakdown:
Section |  min time  |  avg time  |  max time  |%varavg| %total
---------------------------------------------------------------
Pair    | 2.7689     | 7.2944     | 10.87      | 125.9 |  2.71
Bond    | 0.001602   | 0.0031429  | 0.0067502  |   3.7 |  0.00
Kspace  | 63.673     | 67.253     | 71.78      |  41.5 | 25.01
Neigh   | 16.714     | 16.74      | 16.778     |   0.6 |  6.22
Comm    | 0.44279    | 0.49239    | 0.52437    |   4.9 |  0.18
Output  | 0.00021237 | 0.00055298 | 0.0013824  |   0.0 |  0.00
Modify  | 177.11     | 177.12     | 177.13     |   0.1 | 65.86
Other   |            | 0.02449    |            |       |  0.01

Nlocal:        1077.75 ave        1494 max         657 min
Histogram: 1 1 0 0 0 0 0 0 1 1
Nghost:        8908.75 ave       11946 max        5684 min
Histogram: 1 1 0 0 0 0 0 0 0 2
Neighs:         536036 ave      798165 max      198523 min
Histogram: 1 0 0 1 0 0 0 0 0 2

Total # of neighbors = 2144145
Ave neighs/atom = 497.36604
Ave special neighs/atom = 0.029227557
Neighbor list builds = 1944
Dangerous builds = 0

  unfix swp
  thermo_style custom step temp pe

next temp
jump SELF minimize_temp

  variable ftemp equal v_temp

  # Electrostatic relaxation
  fix swp swpFe atom/swap 1 1 ${rand} ${temp} ke no types 6 7
  fix swp swpFe atom/swap 1 1 3250684 ${temp} ke no types 6 7
  fix swp swpFe atom/swap 1 1 3250684 14 ke no types 6 7
  thermo 100
  thermo_style custom step v_ftemp pe f_swp[1] f_swp[2]
  run ${nsteps}
  run 972
WARNING: No fixes with time integration, atoms won't move (../verlet.cpp:60)
PPPM initialization ...
  using 12-bit tables for long-range coulomb (../kspace.cpp:340)
  G vector (1/distance) = 0.29499995
  grid = 45 45 250
  stencil order = 5
  estimated absolute RMS force accuracy = 0.00038527262
  estimated relative force accuracy = 1.160237e-06
  using double precision KISS FFT
  3d grid and FFT values/proc = 554040 378675
  generated 45 of 45 mixed pair_coeff terms from arithmetic mixing rule
Per MPI rank memory allocation (min/avg/max) = 24.35 | 35.11 | 63.71 Mbytes
Step v_ftemp PotEng f_swp[1] f_swp[2] 
   72900           14   -786144.25            0            0 
   73000           14   -786144.25          100            0 
   73100           14   -786144.25          200            0 
   73200           14   -786144.25          300            0 
   73300           14   -786144.25          400            0 
   73400           14   -786144.25          500            0 
   73500           14   -786144.25          600            0 
   73600           14   -786144.25          700            0 
   73700           14   -786144.25          800            0 
   73800           14   -786144.25          900            0 
   73872           14   -786144.25          972            0 
Loop time of 272.16 on 4 procs for 972 steps with 4311 atoms

Performance: 0.154 ns/day, 155.556 hours/ns, 3.571 timesteps/s
94.6% CPU use with 4 MPI tasks x no OpenMP threads

MPI task timing breakdown:
Section |  min time  |  avg time  |  max time  |%varavg| %total
---------------------------------------------------------------
Pair    | 2.7722     | 7.2695     | 10.782     | 125.7 |  2.67
Bond    | 0.0011551  | 0.0026514  | 0.0066029  |   4.4 |  0.00
Kspace  | 65.531     | 69.048     | 73.547     |  40.8 | 25.37
Neigh   | 16.557     | 16.582     | 16.618     |   0.6 |  6.09
Comm    | 0.41969    | 0.4676     | 0.49926    |   4.9 |  0.17
Output  | 0.00019223 | 0.00046281 | 0.0011121  |   0.0 |  0.00
Modify  | 178.75     | 178.76     | 178.78     |   0.1 | 65.68
Other   |            | 0.02423    |            |       |  0.01

Nlocal:        1077.75 ave        1494 max         657 min
Histogram: 1 1 0 0 0 0 0 0 1 1
Nghost:        8908.75 ave       11946 max        5684 min
Histogram: 1 1 0 0 0 0 0 0 0 2
Neighs:         536036 ave      798165 max      198523 min
Histogram: 1 0 0 1 0 0 0 0 0 2

Total # of neighbors = 2144145
Ave neighs/atom = 497.36604
Ave special neighs/atom = 0.029227557
Neighbor list builds = 1944
Dangerous builds = 0

  unfix swp
  thermo_style custom step temp pe

next temp
jump SELF minimize_temp

  variable ftemp equal v_temp

  # Electrostatic relaxation
  fix swp swpFe atom/swap 1 1 ${rand} ${temp} ke no types 6 7
  fix swp swpFe atom/swap 1 1 1810735 ${temp} ke no types 6 7
  fix swp swpFe atom/swap 1 1 1810735 12 ke no types 6 7
  thermo 100
  thermo_style custom step v_ftemp pe f_swp[1] f_swp[2]
  run ${nsteps}
  run 972
WARNING: No fixes with time integration, atoms won't move (../verlet.cpp:60)
PPPM initialization ...
  using 12-bit tables for long-range coulomb (../kspace.cpp:340)
  G vector (1/distance) = 0.29499995
  grid = 45 45 250
  stencil order = 5
  estimated absolute RMS force accuracy = 0.00038527262
  estimated relative force accuracy = 1.160237e-06
  using double precision KISS FFT
  3d grid and FFT values/proc = 554040 378675
  generated 45 of 45 mixed pair_coeff terms from arithmetic mixing rule
Per MPI rank memory allocation (min/avg/max) = 24.35 | 35.11 | 63.71 Mbytes
Step v_ftemp PotEng f_swp[1] f_swp[2] 
   73872           12   -786144.25            0            0 
   73900           12   -786144.25           28            0 
   74000           12   -786144.25          128            0 
   74100           12   -786144.25          228            0 
   74200           12   -786144.25          328            0 
   74300           12   -786144.25          428            0 
   74400           12   -786144.25          528            0 
   74500           12   -786144.25          628            0 
   74600           12   -786144.25          728            0 
   74700           12   -786144.25          828            0 
   74800           12   -786144.25          928            0 
   74844           12   -786144.25          972            0 
Loop time of 268.687 on 4 procs for 972 steps with 4311 atoms

Performance: 0.156 ns/day, 153.571 hours/ns, 3.618 timesteps/s
94.5% CPU use with 4 MPI tasks x no OpenMP threads

MPI task timing breakdown:
Section |  min time  |  avg time  |  max time  |%varavg| %total
---------------------------------------------------------------
Pair    | 2.7951     | 7.2673     | 10.753     | 124.6 |  2.70
Bond    | 0.0010683  | 0.0027525  | 0.0071782  |   4.9 |  0.00
Kspace  | 64.062     | 67.552     | 72.026     |  40.9 | 25.14
Neigh   | 16.69      | 16.716     | 16.754     |   0.6 |  6.22
Comm    | 0.44685    | 0.49981    | 0.53323    |   5.1 |  0.19
Output  | 0.00025109 | 0.00063258 | 0.0015567  |   0.0 |  0.00
Modify  | 176.61     | 176.62     | 176.64     |   0.1 | 65.74
Other   |            | 0.0256     |            |       |  0.01

Nlocal:        1077.75 ave        1494 max         657 min
Histogram: 1 1 0 0 0 0 0 0 1 1
Nghost:        8908.75 ave       11946 max        5684 min
Histogram: 1 1 0 0 0 0 0 0 0 2
Neighs:         536036 ave      798165 max      198523 min
Histogram: 1 0 0 1 0 0 0 0 0 2

Total # of neighbors = 2144145
Ave neighs/atom = 497.36604
Ave special neighs/atom = 0.029227557
Neighbor list builds = 1944
Dangerous builds = 0

  unfix swp
  thermo_style custom step temp pe

next temp
jump SELF minimize_temp

  variable ftemp equal v_temp

  # Electrostatic relaxation
  fix swp swpFe atom/swap 1 1 ${rand} ${temp} ke no types 6 7
  fix swp swpFe atom/swap 1 1 1251659 ${temp} ke no types 6 7
  fix swp swpFe atom/swap 1 1 1251659 10 ke no types 6 7
  thermo 100
  thermo_style custom step v_ftemp pe f_swp[1] f_swp[2]
  run ${nsteps}
  run 972
WARNING: No fixes with time integration, atoms won't move (../verlet.cpp:60)
PPPM initialization ...
  using 12-bit tables for long-range coulomb (../kspace.cpp:340)
  G vector (1/distance) = 0.29499995
  grid = 45 45 250
  stencil order = 5
  estimated absolute RMS force accuracy = 0.00038527262
  estimated relative force accuracy = 1.160237e-06
  using double precision KISS FFT
  3d grid and FFT values/proc = 554040 378675
  generated 45 of 45 mixed pair_coeff terms from arithmetic mixing rule
Per MPI rank memory allocation (min/avg/max) = 24.35 | 35.11 | 63.71 Mbytes
Step v_ftemp PotEng f_swp[1] f_swp[2] 
   74844           10   -786144.25            0            0 
   74900           10   -786144.25           56            0 
   75000           10   -786144.25          156            0 
   75100           10   -786144.25          256            0 
   75200           10   -786144.25          356            0 
   75300           10   -786144.25          456            0 
   75400           10   -786144.25          556            0 
   75500           10   -786144.25          656            0 
   75600           10   -786144.25          756            0 
   75700           10   -786144.25          856            0 
   75800           10   -786144.25          956            0 
   75816           10   -786144.25          972            0 
Loop time of 270.157 on 4 procs for 972 steps with 4311 atoms

Performance: 0.155 ns/day, 154.411 hours/ns, 3.598 timesteps/s
94.6% CPU use with 4 MPI tasks x no OpenMP threads

MPI task timing breakdown:
Section |  min time  |  avg time  |  max time  |%varavg| %total
---------------------------------------------------------------
Pair    | 2.7633     | 7.273      | 10.779     | 125.9 |  2.69
Bond    | 0.0010095  | 0.0026521  | 0.0068416  |   4.7 |  0.00
Kspace  | 65.212     | 68.722     | 73.233     |  41.0 | 25.44
Neigh   | 16.678     | 16.705     | 16.745     |   0.7 |  6.18
Comm    | 0.45148    | 0.50356    | 0.537      |   5.0 |  0.19
Output  | 0.00021376 | 0.00050396 | 0.0012044  |   0.0 |  0.00
Modify  | 176.92     | 176.93     | 176.94     |   0.1 | 65.49
Other   |            | 0.02395    |            |       |  0.01

Nlocal:        1077.75 ave        1494 max         657 min
Histogram: 1 1 0 0 0 0 0 0 1 1
Nghost:        8908.75 ave       11946 max        5684 min
Histogram: 1 1 0 0 0 0 0 0 0 2
Neighs:         536036 ave      798165 max      198523 min
Histogram: 1 0 0 1 0 0 0 0 0 2

Total # of neighbors = 2144145
Ave neighs/atom = 497.36604
Ave special neighs/atom = 0.029227557
Neighbor list builds = 1944
Dangerous builds = 0

  unfix swp
  thermo_style custom step temp pe

next temp
jump SELF minimize_temp

  variable ftemp equal v_temp

  # Electrostatic relaxation
  fix swp swpFe atom/swap 1 1 ${rand} ${temp} ke no types 6 7
  fix swp swpFe atom/swap 1 1 1092138 ${temp} ke no types 6 7
  fix swp swpFe atom/swap 1 1 1092138 9 ke no types 6 7
  thermo 100
  thermo_style custom step v_ftemp pe f_swp[1] f_swp[2]
  run ${nsteps}
  run 972
WARNING: No fixes with time integration, atoms won't move (../verlet.cpp:60)
PPPM initialization ...
  using 12-bit tables for long-range coulomb (../kspace.cpp:340)
  G vector (1/distance) = 0.29499995
  grid = 45 45 250
  stencil order = 5
  estimated absolute RMS force accuracy = 0.00038527262
  estimated relative force accuracy = 1.160237e-06
  using double precision KISS FFT
  3d grid and FFT values/proc = 554040 378675
  generated 45 of 45 mixed pair_coeff terms from arithmetic mixing rule
Per MPI rank memory allocation (min/avg/max) = 24.35 | 35.11 | 63.71 Mbytes
Step v_ftemp PotEng f_swp[1] f_swp[2] 
   75816            9   -786144.25            0            0 
   75900            9   -786144.25           84            0 
   76000            9   -786144.25          184            0 
   76100            9   -786144.25          284            0 
   76200            9   -786144.25          384            0 
   76300            9   -786144.25          484            0 
   76400            9   -786144.25          584            0 
   76500            9   -786144.25          684            0 
   76600            9   -786144.25          784            0 
   76700            9   -786144.25          884            0 
   76788            9   -786144.25          972            0 
Loop time of 269.434 on 4 procs for 972 steps with 4311 atoms

Performance: 0.156 ns/day, 153.997 hours/ns, 3.608 timesteps/s
94.2% CPU use with 4 MPI tasks x no OpenMP threads

MPI task timing breakdown:
Section |  min time  |  avg time  |  max time  |%varavg| %total
---------------------------------------------------------------
Pair    | 2.7528     | 7.2855     | 10.809     | 126.5 |  2.70
Bond    | 0.001187   | 0.0027849  | 0.0066572  |   4.3 |  0.00
Kspace  | 64.914     | 68.443     | 72.977     |  41.3 | 25.40
Neigh   | 16.6       | 16.627     | 16.666     |   0.7 |  6.17
Comm    | 0.44295    | 0.49545    | 0.5289     |   5.0 |  0.18
Output  | 0.00020911 | 0.00048733 | 0.0011644  |   0.0 |  0.00
Modify  | 176.54     | 176.56     | 176.57     |   0.1 | 65.53
Other   |            | 0.02343    |            |       |  0.01

Nlocal:        1077.75 ave        1494 max         657 min
Histogram: 1 1 0 0 0 0 0 0 1 1
Nghost:        8908.75 ave       11946 max        5684 min
Histogram: 1 1 0 0 0 0 0 0 0 2
Neighs:         536036 ave      798165 max      198523 min
Histogram: 1 0 0 1 0 0 0 0 0 2

Total # of neighbors = 2144145
Ave neighs/atom = 497.36604
Ave special neighs/atom = 0.029227557
Neighbor list builds = 1944
Dangerous builds = 0

  unfix swp
  thermo_style custom step temp pe

next temp
jump SELF minimize_temp

  variable ftemp equal v_temp

  # Electrostatic relaxation
  fix swp swpFe atom/swap 1 1 ${rand} ${temp} ke no types 6 7
  fix swp swpFe atom/swap 1 1 9182673 ${temp} ke no types 6 7
  fix swp swpFe atom/swap 1 1 9182673 8 ke no types 6 7
  thermo 100
  thermo_style custom step v_ftemp pe f_swp[1] f_swp[2]
  run ${nsteps}
  run 972
WARNING: No fixes with time integration, atoms won't move (../verlet.cpp:60)
PPPM initialization ...
  using 12-bit tables for long-range coulomb (../kspace.cpp:340)
  G vector (1/distance) = 0.29499995
  grid = 45 45 250
  stencil order = 5
  estimated absolute RMS force accuracy = 0.00038527262
  estimated relative force accuracy = 1.160237e-06
  using double precision KISS FFT
  3d grid and FFT values/proc = 554040 378675
  generated 45 of 45 mixed pair_coeff terms from arithmetic mixing rule
Per MPI rank memory allocation (min/avg/max) = 24.35 | 35.11 | 63.71 Mbytes
Step v_ftemp PotEng f_swp[1] f_swp[2] 
   76788            8   -786144.25            0            0 
   76800            8   -786144.25           12            0 
   76900            8   -786144.25          112            0 
   77000            8   -786144.25          212            0 
   77100            8   -786144.25          312            0 
   77200            8   -786144.25          412            0 
   77300            8   -786144.25          512            0 
   77400            8   -786144.25          612            0 
   77500            8   -786144.25          712            0 
   77600            8   -786144.25          812            0 
   77700            8   -786144.25          912            0 
   77760            8   -786144.25          972            0 
Loop time of 267.474 on 4 procs for 972 steps with 4311 atoms

Performance: 0.157 ns/day, 152.877 hours/ns, 3.634 timesteps/s
94.8% CPU use with 4 MPI tasks x no OpenMP threads

MPI task timing breakdown:
Section |  min time  |  avg time  |  max time  |%varavg| %total
---------------------------------------------------------------
Pair    | 2.7621     | 7.2899     | 10.877     | 126.2 |  2.73
Bond    | 0.00094514 | 0.0025984  | 0.0069056  |   4.9 |  0.00
Kspace  | 62.637     | 66.228     | 70.757     |  41.9 | 24.76
Neigh   | 16.834     | 16.862     | 16.901     |   0.7 |  6.30
Comm    | 0.46717    | 0.52221    | 0.55698    |   5.2 |  0.20
Output  | 0.00024867 | 0.00059817 | 0.0014408  |   0.0 |  0.00
Modify  | 176.53     | 176.54     | 176.56     |   0.1 | 66.00
Other   |            | 0.02568    |            |       |  0.01

Nlocal:        1077.75 ave        1494 max         657 min
Histogram: 1 1 0 0 0 0 0 0 1 1
Nghost:        8908.75 ave       11946 max        5684 min
Histogram: 1 1 0 0 0 0 0 0 0 2
Neighs:         536036 ave      798165 max      198523 min
Histogram: 1 0 0 1 0 0 0 0 0 2

Total # of neighbors = 2144145
Ave neighs/atom = 497.36604
Ave special neighs/atom = 0.029227557
Neighbor list builds = 1944
Dangerous builds = 0

  unfix swp
  thermo_style custom step temp pe

next temp
jump SELF minimize_temp

  variable ftemp equal v_temp

  # Electrostatic relaxation
  fix swp swpFe atom/swap 1 1 ${rand} ${temp} ke no types 6 7
  fix swp swpFe atom/swap 1 1 8523874 ${temp} ke no types 6 7
  fix swp swpFe atom/swap 1 1 8523874 7 ke no types 6 7
  thermo 100
  thermo_style custom step v_ftemp pe f_swp[1] f_swp[2]
  run ${nsteps}
  run 972
WARNING: No fixes with time integration, atoms won't move (../verlet.cpp:60)
PPPM initialization ...
  using 12-bit tables for long-range coulomb (../kspace.cpp:340)
  G vector (1/distance) = 0.29499995
  grid = 45 45 250
  stencil order = 5
  estimated absolute RMS force accuracy = 0.00038527262
  estimated relative force accuracy = 1.160237e-06
  using double precision KISS FFT
  3d grid and FFT values/proc = 554040 378675
  generated 45 of 45 mixed pair_coeff terms from arithmetic mixing rule
Per MPI rank memory allocation (min/avg/max) = 24.35 | 35.11 | 63.71 Mbytes
Step v_ftemp PotEng f_swp[1] f_swp[2] 
   77760            7   -786144.25            0            0 
   77800            7   -786144.25           40            0 
   77900            7   -786144.25          140            0 
   78000            7   -786144.25          240            0 
   78100            7   -786144.25          340            0 
   78200            7   -786144.25          440            0 
   78300            7   -786144.25          540            0 
   78400            7   -786144.25          640            0 
   78500            7   -786144.25          740            0 
   78600            7   -786144.25          840            0 
   78700            7   -786144.25          940            0 
   78732            7   -786144.25          972            0 
Loop time of 269.268 on 4 procs for 972 steps with 4311 atoms

Performance: 0.156 ns/day, 153.903 hours/ns, 3.610 timesteps/s
94.5% CPU use with 4 MPI tasks x no OpenMP threads

MPI task timing breakdown:
Section |  min time  |  avg time  |  max time  |%varavg| %total
---------------------------------------------------------------
Pair    | 2.7775     | 7.3914     | 11.076     | 128.0 |  2.74
Bond    | 0.0014564  | 0.0031868  | 0.0073999  |   4.3 |  0.00
Kspace  | 64.107     | 67.796     | 72.411     |  42.3 | 25.18
Neigh   | 16.643     | 16.669     | 16.706     |   0.6 |  6.19
Comm    | 0.42473    | 0.47359    | 0.50526    |   4.9 |  0.18
Output  | 0.00020485 | 0.00051357 | 0.0012768  |   0.0 |  0.00
Modify  | 176.9      | 176.91     | 176.92     |   0.1 | 65.70
Other   |            | 0.02267    |            |       |  0.01

Nlocal:        1077.75 ave        1494 max         657 min
Histogram: 1 1 0 0 0 0 0 0 1 1
Nghost:        8908.75 ave       11946 max        5684 min
Histogram: 1 1 0 0 0 0 0 0 0 2
Neighs:         536036 ave      798165 max      198523 min
Histogram: 1 0 0 1 0 0 0 0 0 2

Total # of neighbors = 2144145
Ave neighs/atom = 497.36604
Ave special neighs/atom = 0.029227557
Neighbor list builds = 1944
Dangerous builds = 0

  unfix swp
  thermo_style custom step temp pe

next temp
jump SELF minimize_temp

  variable ftemp equal v_temp

  # Electrostatic relaxation
  fix swp swpFe atom/swap 1 1 ${rand} ${temp} ke no types 6 7
  fix swp swpFe atom/swap 1 1 7973751 ${temp} ke no types 6 7
  fix swp swpFe atom/swap 1 1 7973751 6 ke no types 6 7
  thermo 100
  thermo_style custom step v_ftemp pe f_swp[1] f_swp[2]
  run ${nsteps}
  run 972
WARNING: No fixes with time integration, atoms won't move (../verlet.cpp:60)
PPPM initialization ...
  using 12-bit tables for long-range coulomb (../kspace.cpp:340)
  G vector (1/distance) = 0.29499995
  grid = 45 45 250
  stencil order = 5
  estimated absolute RMS force accuracy = 0.00038527262
  estimated relative force accuracy = 1.160237e-06
  using double precision KISS FFT
  3d grid and FFT values/proc = 554040 378675
  generated 45 of 45 mixed pair_coeff terms from arithmetic mixing rule
Per MPI rank memory allocation (min/avg/max) = 24.35 | 35.11 | 63.71 Mbytes
Step v_ftemp PotEng f_swp[1] f_swp[2] 
   78732            6   -786144.25            0            0 
   78800            6   -786144.25           68            0 
   78900            6   -786144.25          168            0 
   79000            6   -786144.25          268            0 
   79100            6   -786144.25          368            0 
   79200            6   -786144.25          468            0 
   79300            6   -786144.25          568            0 
   79400            6   -786144.25          668            0 
   79500            6   -786144.25          768            0 
   79600            6   -786144.25          868            0 
   79700            6   -786144.25          968            0 
   79704            6   -786144.25          972            0 
Loop time of 269.54 on 4 procs for 972 steps with 4311 atoms

Performance: 0.156 ns/day, 154.058 hours/ns, 3.606 timesteps/s
94.3% CPU use with 4 MPI tasks x no OpenMP threads

MPI task timing breakdown:
Section |  min time  |  avg time  |  max time  |%varavg| %total
---------------------------------------------------------------
Pair    | 2.8187     | 7.4152     | 11.045     | 127.6 |  2.75
Bond    | 0.0012705  | 0.0032432  | 0.0077471  |   4.6 |  0.00
Kspace  | 65.59      | 69.223     | 73.821     |  41.8 | 25.68
Neigh   | 16.449     | 16.471     | 16.502     |   0.5 |  6.11
Comm    | 0.37508    | 0.4154     | 0.44374    |   4.5 |  0.15
Output  | 0.00022244 | 0.00054917 | 0.0013322  |   0.0 |  0.00
Modify  | 175.98     | 175.99     | 176        |   0.1 | 65.29
Other   |            | 0.02228    |            |       |  0.01

Nlocal:        1077.75 ave        1494 max         657 min
Histogram: 1 1 0 0 0 0 0 0 1 1
Nghost:        8908.75 ave       11946 max        5684 min
Histogram: 1 1 0 0 0 0 0 0 0 2
Neighs:         536036 ave      798165 max      198523 min
Histogram: 1 0 0 1 0 0 0 0 0 2

Total # of neighbors = 2144145
Ave neighs/atom = 497.36604
Ave special neighs/atom = 0.029227557
Neighbor list builds = 1944
Dangerous builds = 0

  unfix swp
  thermo_style custom step temp pe

next temp
jump SELF minimize_temp

  variable ftemp equal v_temp

  # Electrostatic relaxation
  fix swp swpFe atom/swap 1 1 ${rand} ${temp} ke no types 6 7
  fix swp swpFe atom/swap 1 1 8822405 ${temp} ke no types 6 7
  fix swp swpFe atom/swap 1 1 8822405 5 ke no types 6 7
  thermo 100
  thermo_style custom step v_ftemp pe f_swp[1] f_swp[2]
  run ${nsteps}
  run 972
WARNING: No fixes with time integration, atoms won't move (../verlet.cpp:60)
PPPM initialization ...
  using 12-bit tables for long-range coulomb (../kspace.cpp:340)
  G vector (1/distance) = 0.29499995
  grid = 45 45 250
  stencil order = 5
  estimated absolute RMS force accuracy = 0.00038527262
  estimated relative force accuracy = 1.160237e-06
  using double precision KISS FFT
  3d grid and FFT values/proc = 554040 378675
  generated 45 of 45 mixed pair_coeff terms from arithmetic mixing rule
Per MPI rank memory allocation (min/avg/max) = 24.35 | 35.11 | 63.71 Mbytes
Step v_ftemp PotEng f_swp[1] f_swp[2] 
   79704            5   -786144.25            0            0 
   79800            5   -786144.25           96            0 
   79900            5   -786144.25          196            0 
   80000            5   -786144.25          296            0 
   80100            5   -786144.25          396            0 
   80200            5   -786144.25          496            0 
   80300            5   -786144.25          596            0 
   80400            5   -786144.25          696            0 
   80500            5   -786144.25          796            0 
   80600            5   -786144.25          896            0 
   80676            5   -786144.25          972            0 
Loop time of 272.011 on 4 procs for 972 steps with 4311 atoms

Performance: 0.154 ns/day, 155.470 hours/ns, 3.573 timesteps/s
94.1% CPU use with 4 MPI tasks x no OpenMP threads

MPI task timing breakdown:
Section |  min time  |  avg time  |  max time  |%varavg| %total
---------------------------------------------------------------
Pair    | 2.7717     | 7.2879     | 10.841     | 125.6 |  2.68
Bond    | 0.00099963 | 0.0028506  | 0.0070685  |   4.6 |  0.00
Kspace  | 66.054     | 69.612     | 74.129     |  40.7 | 25.59
Neigh   | 16.614     | 16.641     | 16.679     |   0.6 |  6.12
Comm    | 0.45139    | 0.5035     | 0.53682    |   5.0 |  0.19
Output  | 0.00022199 | 0.00054106 | 0.0012935  |   0.0 |  0.00
Modify  | 177.93     | 177.94     | 177.95     |   0.1 | 65.42
Other   |            | 0.02343    |            |       |  0.01

Nlocal:        1077.75 ave        1494 max         657 min
Histogram: 1 1 0 0 0 0 0 0 1 1
Nghost:        8908.75 ave       11946 max        5684 min
Histogram: 1 1 0 0 0 0 0 0 0 2
Neighs:         536036 ave      798165 max      198523 min
Histogram: 1 0 0 1 0 0 0 0 0 2

Total # of neighbors = 2144145
Ave neighs/atom = 497.36604
Ave special neighs/atom = 0.029227557
Neighbor list builds = 1944
Dangerous builds = 0

  unfix swp
  thermo_style custom step temp pe

next temp
jump SELF minimize_temp

  variable ftemp equal v_temp

  # Electrostatic relaxation
  fix swp swpFe atom/swap 1 1 ${rand} ${temp} ke no types 6 7
  fix swp swpFe atom/swap 1 1 1866513 ${temp} ke no types 6 7
  fix swp swpFe atom/swap 1 1 1866513 4 ke no types 6 7
  thermo 100
  thermo_style custom step v_ftemp pe f_swp[1] f_swp[2]
  run ${nsteps}
  run 972
WARNING: No fixes with time integration, atoms won't move (../verlet.cpp:60)
PPPM initialization ...
  using 12-bit tables for long-range coulomb (../kspace.cpp:340)
  G vector (1/distance) = 0.29499995
  grid = 45 45 250
  stencil order = 5
  estimated absolute RMS force accuracy = 0.00038527262
  estimated relative force accuracy = 1.160237e-06
  using double precision KISS FFT
  3d grid and FFT values/proc = 554040 378675
  generated 45 of 45 mixed pair_coeff terms from arithmetic mixing rule
Per MPI rank memory allocation (min/avg/max) = 24.35 | 35.11 | 63.71 Mbytes
Step v_ftemp PotEng f_swp[1] f_swp[2] 
   80676            4   -786144.25            0            0 
   80700            4   -786144.25           24            0 
   80800            4   -786144.25          124            0 
   80900            4   -786144.25          224            0 
   81000            4   -786144.25          324            0 
   81100            4   -786144.25          424            0 
   81200            4   -786144.25          524            0 
   81300            4   -786144.25          624            0 
   81400            4   -786144.25          724            0 
   81500            4   -786144.25          824            0 
   81600            4   -786144.25          924            0 
   81648            4   -786144.25          972            0 
Loop time of 269.702 on 4 procs for 972 steps with 4311 atoms

Performance: 0.156 ns/day, 154.151 hours/ns, 3.604 timesteps/s
94.4% CPU use with 4 MPI tasks x no OpenMP threads

MPI task timing breakdown:
Section |  min time  |  avg time  |  max time  |%varavg| %total
---------------------------------------------------------------
Pair    | 2.8261     | 7.3044     | 10.862     | 125.4 |  2.71
Bond    | 0.0013978  | 0.0030365  | 0.0076239  |   4.8 |  0.00
Kspace  | 64.737     | 68.3       | 72.779     |  41.0 | 25.32
Neigh   | 16.637     | 16.662     | 16.698     |   0.6 |  6.18
Comm    | 0.4214     | 0.46998    | 0.50263    |   4.9 |  0.17
Output  | 0.00022022 | 0.00052729 | 0.0012886  |   0.0 |  0.00
Modify  | 176.93     | 176.94     | 176.95     |   0.1 | 65.60
Other   |            | 0.02432    |            |       |  0.01

Nlocal:        1077.75 ave        1494 max         657 min
Histogram: 1 1 0 0 0 0 0 0 1 1
Nghost:        8908.75 ave       11946 max        5684 min
Histogram: 1 1 0 0 0 0 0 0 0 2
Neighs:         536036 ave      798165 max      198523 min
Histogram: 1 0 0 1 0 0 0 0 0 2

Total # of neighbors = 2144145
Ave neighs/atom = 497.36604
Ave special neighs/atom = 0.029227557
Neighbor list builds = 1944
Dangerous builds = 0

  unfix swp
  thermo_style custom step temp pe

next temp
jump SELF minimize_temp

  variable ftemp equal v_temp

  # Electrostatic relaxation
  fix swp swpFe atom/swap 1 1 ${rand} ${temp} ke no types 6 7
  fix swp swpFe atom/swap 1 1 2979469 ${temp} ke no types 6 7
  fix swp swpFe atom/swap 1 1 2979469 3 ke no types 6 7
  thermo 100
  thermo_style custom step v_ftemp pe f_swp[1] f_swp[2]
  run ${nsteps}
  run 972
WARNING: No fixes with time integration, atoms won't move (../verlet.cpp:60)
PPPM initialization ...
  using 12-bit tables for long-range coulomb (../kspace.cpp:340)
  G vector (1/distance) = 0.29499995
  grid = 45 45 250
  stencil order = 5
  estimated absolute RMS force accuracy = 0.00038527262
  estimated relative force accuracy = 1.160237e-06
  using double precision KISS FFT
  3d grid and FFT values/proc = 554040 378675
  generated 45 of 45 mixed pair_coeff terms from arithmetic mixing rule
Per MPI rank memory allocation (min/avg/max) = 24.35 | 35.11 | 63.71 Mbytes
Step v_ftemp PotEng f_swp[1] f_swp[2] 
   81648            3   -786144.25            0            0 
   81700            3   -786144.25           52            0 
   81800            3   -786144.25          152            0 
   81900            3   -786144.25          252            0 
   82000            3   -786144.25          352            0 
   82100            3   -786144.25          452            0 
   82200            3   -786144.25          552            0 
   82300            3   -786144.25          652            0 
   82400            3   -786144.25          752            0 
   82500            3   -786144.25          852            0 
   82600            3   -786144.25          952            0 
   82620            3   -786144.25          972            0 
Loop time of 270.168 on 4 procs for 972 steps with 4311 atoms

Performance: 0.155 ns/day, 154.417 hours/ns, 3.598 timesteps/s
94.4% CPU use with 4 MPI tasks x no OpenMP threads

MPI task timing breakdown:
Section |  min time  |  avg time  |  max time  |%varavg| %total
---------------------------------------------------------------
Pair    | 2.7904     | 7.4017     | 11.109     | 128.2 |  2.74
Bond    | 0.0016253  | 0.0032161  | 0.0074408  |   4.3 |  0.00
Kspace  | 64.727     | 68.438     | 73.05      |  42.2 | 25.33
Neigh   | 16.629     | 16.654     | 16.687     |   0.6 |  6.16
Comm    | 0.4009     | 0.44507    | 0.47474    |   4.7 |  0.16
Output  | 0.00035013 | 0.00070726 | 0.0014657  |   0.0 |  0.00
Modify  | 177.19     | 177.2      | 177.21     |   0.1 | 65.59
Other   |            | 0.02274    |            |       |  0.01

Nlocal:        1077.75 ave        1494 max         657 min
Histogram: 1 1 0 0 0 0 0 0 1 1
Nghost:        8908.75 ave       11946 max        5684 min
Histogram: 1 1 0 0 0 0 0 0 0 2
Neighs:         536036 ave      798165 max      198523 min
Histogram: 1 0 0 1 0 0 0 0 0 2

Total # of neighbors = 2144145
Ave neighs/atom = 497.36604
Ave special neighs/atom = 0.029227557
Neighbor list builds = 1944
Dangerous builds = 0

  unfix swp
  thermo_style custom step temp pe

next temp
jump SELF minimize_temp

  variable ftemp equal v_temp

  # Electrostatic relaxation
  fix swp swpFe atom/swap 1 1 ${rand} ${temp} ke no types 6 7
  fix swp swpFe atom/swap 1 1 7974133 ${temp} ke no types 6 7
  fix swp swpFe atom/swap 1 1 7974133 2 ke no types 6 7
  thermo 100
  thermo_style custom step v_ftemp pe f_swp[1] f_swp[2]
  run ${nsteps}
  run 972
WARNING: No fixes with time integration, atoms won't move (../verlet.cpp:60)
PPPM initialization ...
  using 12-bit tables for long-range coulomb (../kspace.cpp:340)
  G vector (1/distance) = 0.29499995
  grid = 45 45 250
  stencil order = 5
  estimated absolute RMS force accuracy = 0.00038527262
  estimated relative force accuracy = 1.160237e-06
  using double precision KISS FFT
  3d grid and FFT values/proc = 554040 378675
  generated 45 of 45 mixed pair_coeff terms from arithmetic mixing rule
Per MPI rank memory allocation (min/avg/max) = 24.35 | 35.11 | 63.71 Mbytes
Step v_ftemp PotEng f_swp[1] f_swp[2] 
   82620            2   -786144.25            0            0 
   82700            2   -786144.25           80            0 
   82800            2   -786144.25          180            0 
   82900            2   -786144.25          280            0 
   83000            2   -786144.25          380            0 
   83100            2   -786144.25          480            0 
   83200            2   -786144.25          580            0 
   83300            2   -786144.25          680            0 
   83400            2   -786144.25          780            0 
   83500            2   -786144.25          880            0 
   83592            2   -786144.25          972            0 
Loop time of 269.377 on 4 procs for 972 steps with 4311 atoms

Performance: 0.156 ns/day, 153.965 hours/ns, 3.608 timesteps/s
94.6% CPU use with 4 MPI tasks x no OpenMP threads

MPI task timing breakdown:
Section |  min time  |  avg time  |  max time  |%varavg| %total
---------------------------------------------------------------
Pair    | 2.7605     | 7.2516     | 10.843     | 125.6 |  2.69
Bond    | 0.0010212  | 0.0027145  | 0.0069723  |   4.7 |  0.00
Kspace  | 63.657     | 67.253     | 71.746     |  41.3 | 24.97
Neigh   | 16.726     | 16.753     | 16.79      |   0.6 |  6.22
Comm    | 0.45565    | 0.50803    | 0.54154    |   5.0 |  0.19
Output  | 0.00020841 | 0.00052502 | 0.0012847  |   0.0 |  0.00
Modify  | 177.57     | 177.58     | 177.6      |   0.1 | 65.92
Other   |            | 0.02474    |            |       |  0.01

Nlocal:        1077.75 ave        1494 max         657 min
Histogram: 1 1 0 0 0 0 0 0 1 1
Nghost:        8908.75 ave       11946 max        5684 min
Histogram: 1 1 0 0 0 0 0 0 0 2
Neighs:         536036 ave      798165 max      198523 min
Histogram: 1 0 0 1 0 0 0 0 0 2

Total # of neighbors = 2144145
Ave neighs/atom = 497.36604
Ave special neighs/atom = 0.029227557
Neighbor list builds = 1944
Dangerous builds = 0

  unfix swp
  thermo_style custom step temp pe

next temp
jump SELF minimize_temp

  variable ftemp equal v_temp

  # Electrostatic relaxation
  fix swp swpFe atom/swap 1 1 ${rand} ${temp} ke no types 6 7
  fix swp swpFe atom/swap 1 1 9540448 ${temp} ke no types 6 7
  fix swp swpFe atom/swap 1 1 9540448 1 ke no types 6 7
  thermo 100
  thermo_style custom step v_ftemp pe f_swp[1] f_swp[2]
  run ${nsteps}
  run 972
WARNING: No fixes with time integration, atoms won't move (../verlet.cpp:60)
PPPM initialization ...
  using 12-bit tables for long-range coulomb (../kspace.cpp:340)
  G vector (1/distance) = 0.29499995
  grid = 45 45 250
  stencil order = 5
  estimated absolute RMS force accuracy = 0.00038527262
  estimated relative force accuracy = 1.160237e-06
  using double precision KISS FFT
  3d grid and FFT values/proc = 554040 378675
  generated 45 of 45 mixed pair_coeff terms from arithmetic mixing rule
Per MPI rank memory allocation (min/avg/max) = 24.35 | 35.11 | 63.71 Mbytes
Step v_ftemp PotEng f_swp[1] f_swp[2] 
   83592            1   -786144.25            0            0 
   83600            1   -786144.25            8            0 
   83700            1   -786144.25          108            0 
   83800            1   -786144.25          208            0 
   83900            1   -786144.25          308            0 
   84000            1   -786144.25          408            0 
   84100            1   -786144.25          508            0 
   84200            1   -786144.25          608            0 
   84300            1   -786144.25          708            0 
   84400            1   -786144.25          808            0 
   84500            1   -786144.25          908            0 
   84564            1   -786144.25          972            0 
Loop time of 269.092 on 4 procs for 972 steps with 4311 atoms

Performance: 0.156 ns/day, 153.802 hours/ns, 3.612 timesteps/s
94.5% CPU use with 4 MPI tasks x no OpenMP threads

MPI task timing breakdown:
Section |  min time  |  avg time  |  max time  |%varavg| %total
---------------------------------------------------------------
Pair    | 2.7703     | 7.3719     | 11.048     | 127.7 |  2.74
Bond    | 0.0016278  | 0.0031864  | 0.0076135  |   4.5 |  0.00
Kspace  | 64.554     | 68.234     | 72.836     |  42.0 | 25.36
Neigh   | 16.667     | 16.693     | 16.728     |   0.6 |  6.20
Comm    | 0.41469    | 0.46241    | 0.49388    |   4.9 |  0.17
Output  | 0.00019521 | 0.00047143 | 0.00113    |   0.0 |  0.00
Modify  | 176.29     | 176.31     | 176.32     |   0.1 | 65.52
Other   |            | 0.02306    |            |       |  0.01

Nlocal:        1077.75 ave        1494 max         657 min
Histogram: 1 1 0 0 0 0 0 0 1 1
Nghost:        8908.75 ave       11946 max        5684 min
Histogram: 1 1 0 0 0 0 0 0 0 2
Neighs:         536036 ave      798165 max      198523 min
Histogram: 1 0 0 1 0 0 0 0 0 2

Total # of neighbors = 2144145
Ave neighs/atom = 497.36604
Ave special neighs/atom = 0.029227557
Neighbor list builds = 1944
Dangerous builds = 0

  unfix swp
  thermo_style custom step temp pe

next temp
jump SELF minimize_temp

write_data 001-dbt_3x3_${layer}L_${type}_lqeq.data
write_data 001-dbt_3x3_21L_${type}_lqeq.data
write_data 001-dbt_3x3_21L_fa_int_half_qeq_lqeq.data
System init for write_data ...
PPPM initialization ...
  using 12-bit tables for long-range coulomb (../kspace.cpp:340)
  G vector (1/distance) = 0.29499995
  grid = 45 45 250
  stencil order = 5
  estimated absolute RMS force accuracy = 0.00038527262
  estimated relative force accuracy = 1.160237e-06
  using double precision KISS FFT
  3d grid and FFT values/proc = 554040 378675
  generated 45 of 45 mixed pair_coeff terms from arithmetic mixing rule

# Full minimization
minimize 1.0e-6 1.0e-9 1000 10000
PPPM initialization ...
  using 12-bit tables for long-range coulomb (../kspace.cpp:340)
  G vector (1/distance) = 0.29499995
  grid = 45 45 250
  stencil order = 5
  estimated absolute RMS force accuracy = 0.00038527262
  estimated relative force accuracy = 1.160237e-06
  using double precision KISS FFT
  3d grid and FFT values/proc = 554040 378675
  generated 45 of 45 mixed pair_coeff terms from arithmetic mixing rule
Per MPI rank memory allocation (min/avg/max) = 25.48 | 36.23 | 64.84 Mbytes
Step Temp PotEng 
   84564            0   -786144.25 
   84600            0   -805872.19 
   84700            0   -806713.54 
   84800            0   -807131.41 
   84900            0   -807509.11 
   84986            0   -807772.58 
Loop time of 57.9735 on 4 procs for 422 steps with 4311 atoms

94.4% CPU use with 4 MPI tasks x no OpenMP threads

Minimization stats:
  Stopping criterion = energy tolerance
  Energy initial, next-to-last, final = 
     -786144.251251822   -807772.00594772  -807772.579738729
  Force two-norm initial, final = 5380.7912 37.594012
  Force max component initial, final = 208.78614 9.5549177
  Final line search alpha, max atom move = 0.0068447633 0.06540115
  Iterations, force evaluations = 422 813

MPI task timing breakdown:
Section |  min time  |  avg time  |  max time  |%varavg| %total
---------------------------------------------------------------
Pair    | 3.4898     | 8.893      | 13.123     | 133.6 | 15.34
Bond    | 0.0012038  | 0.0026323  | 0.0065635  |   4.4 |  0.00
Kspace  | 44.348     | 48.58      | 53.984     |  57.2 | 83.80
Neigh   | 0.30645    | 0.30688    | 0.30745    |   0.1 |  0.53
Comm    | 0.136      | 0.14408    | 0.15272    |   1.8 |  0.25
Output  | 8.5675e-05 | 0.00013754 | 0.00029079 |   0.0 |  0.00
Modify  | 0          | 0          | 0          |   0.0 |  0.00
Other   |            | 0.04635    |            |       |  0.08

Nlocal:        1077.75 ave        1469 max         657 min
Histogram: 1 1 0 0 0 0 0 0 0 2
Nghost:        8930.75 ave       11989 max        5664 min
Histogram: 1 1 0 0 0 0 0 0 0 2
Neighs:         528768 ave      762722 max      198112 min
Histogram: 1 0 0 1 0 0 0 0 0 2

Total # of neighbors = 2115071
Ave neighs/atom = 490.6219
Ave special neighs/atom = 0.029227557
Neighbor list builds = 19
Dangerous builds = 0

write_data 001-dbt_3x3_${layer}L_${type}_lqeq_min.data
write_data 001-dbt_3x3_21L_${type}_lqeq_min.data
write_data 001-dbt_3x3_21L_fa_int_half_qeq_lqeq_min.data
System init for write_data ...
PPPM initialization ...
  using 12-bit tables for long-range coulomb (../kspace.cpp:340)
  G vector (1/distance) = 0.29499995
  grid = 45 45 250
  stencil order = 5
  estimated absolute RMS force accuracy = 0.00038527262
  estimated relative force accuracy = 1.160237e-06
  using double precision KISS FFT
  3d grid and FFT values/proc = 554040 378675
  generated 45 of 45 mixed pair_coeff terms from arithmetic mixing rule
Total wall time: 6:41:10
