LAMMPS (17 Feb 2022)
variable layer index 21
variable type string fa_tet_full_qeq
variable rand equal round(random(0,1e7,452345))
variable temp index 50000 45000 40500 36450 32805 29524 26571 23913 21521 19368 17431 15687 14118 12706 11435 10291 9261 8334 7500 6750 6075 5467 4920 4428 3985 3586 3227 2904 2613 2351 2115 1903 1712 1540 1386 1247 1122 1009 908 817 735 661 594 534 480 432 388 349 314 282 253 227 204 183 164 147 132 118 106 95 85 76 68 61 54 48 43 38 34 30 27 24 21 18 16 14 12 10 9 8 7 6 5 4 3 2 1

variable nsteps equal 972  # (nfe*nfe)/4

include settings.lmp
units              real
atom_style         full
timestep	   0.5
boundary	   p p f

pair_style         lj/cut/coul/long 12.0
bond_style         harmonic
angle_style        harmonic
dihedral_style     fourier
improper_style     cvff
kspace_style       pppm 1.0e-6
kspace_modify      slab 3.0

pair_modify        mix arithmetic
special_bonds      amber
neighbor           2.0 bin
neigh_modify       every 1 delay 0 check yes

read_data 001-dbt_3x3_${layer}L_${type}.data
read_data 001-dbt_3x3_21L_${type}.data
read_data 001-dbt_3x3_21L_fa_tet_full_qeq.data
Reading data file ...
  orthogonal box = (0 0 -64.778423) to (25.44 25.44 32.908)
  1 by 1 by 4 MPI processor grid
  reading atoms ...
  4356 atoms
  reading velocities ...
  4356 velocities
  scanning bonds ...
  3 = max bonds/atom
  scanning angles ...
  3 = max angles/atom
  scanning impropers ...
  1 = max impropers/atom
  reading bonds ...
  72 bonds
  reading angles ...
  108 angles
  reading impropers ...
  18 impropers
Finding 1-2 1-3 1-4 neighbors ...
  special bond factors lj:    0        0        0.5     
  special bond factors coul:  0        0        0.8333333333333334
     3 = max # of 1-2 neighbors
     2 = max # of 1-3 neighbors
     2 = max # of 1-4 neighbors
     3 = max # of special neighbors
  special bonds CPU = 0.001 seconds
  read_data CPU = 0.034 seconds

include ff_formic_acid_fe304.param
#####################-----formic_acid-----######################################

mass  1   12.011   # Sp2 C carbonyl group
mass  2    1.008   # H bonded to non-sp3 carbon with 2 electrwd. group
mass  3   15.9994  # Oxygen with one connected atom
mass  4   15.9994  # Oxygen in hydroxyl group
mass  5    1.008   # Hydroxyl group

pair_coeff  1  1   0.0988  3.31521230994  # c
pair_coeff  2  2   0.0161  2.44729877873  # h5
pair_coeff  3  3   0.1463  3.04812087425  # o
pair_coeff  4  4   0.0930  3.24287133403  # oh
pair_coeff  5  5   0.0047  0.537924646013 # ho

bond_coeff  1  361.80  1.105  # c-h5
bond_coeff  2  652.57  1.218  # c=o
bond_coeff  3  383.13  1.351  # c-oh
bond_coeff  4  563.51  0.973  # o-h

angle_coeff  1   51.617  106.550  # c-oh-ho
angle_coeff  2   65.930  123.650  # h5-c=o
angle_coeff  3   65.262  109.490  # h5-c-oh
angle_coeff  4  115.745  122.100  # o=c-oh

dihedral_coeff  1  1  2.3  2  180.0               # h5-c-oh-ho
dihedral_coeff  2  2  2.3  2  180.0  1.9  1  0.0  # o=c-oh-ho

                              #  h5
                              #  |
improper_coeff  1  10.5 -1 2  #  c
                              # / \
                              # o  oh

#####################-----formate-----###########################################

angle_coeff  5   118.817 130.250  # o-c-o

                              #  h5
                              #  |
improper_coeff  2  10.5 -1 2  #  c
                              # / \
                              # o  o

#####################-----magnetite-----#########################################

mass  6   55.845   # Iron(II)
mass  7   55.845   # Iron(III)
mass  8   15.9994  # Bridging oxygen
mass  9   15.9994  # Hydroxyl oxygen
mass  10   1.008   # Hydroxyl hydrogen

pair_coeff  6  6   9.0298e-07  4.90620  # fe2
pair_coeff  7  7   9.0298e-07  4.90620  # fe3
pair_coeff  8  8   0.1554      3.16554  # ob
pair_coeff  9  9   0.1554      3.16554  # oh
pair_coeff  10 10  0.0         0.0      # ho

bond_coeff  5  554.1349  1.0   # oh-ho
bond_coeff  6    0.0     2.08  # fe-oh (dummy bond)

angle_coeff  6   30.0  109.470  # fe-oh-ho

##################################################################################

group Felayer molecule 101 100 102
324 atoms in group Felayer
group Fe type 6 7
1818 atoms in group Fe
group swpFe intersect Fe Felayer
108 atoms in group swpFe

label minimize_temp

  variable ftemp equal v_temp

  # Electrostatic relaxation
  fix swp swpFe atom/swap 1 1 ${rand} ${temp} ke no types 6 7
  fix swp swpFe atom/swap 1 1 855824 ${temp} ke no types 6 7
  fix swp swpFe atom/swap 1 1 855824 50000 ke no types 6 7
  thermo 100
  thermo_style custom step v_ftemp pe f_swp[1] f_swp[2]
  run ${nsteps}
  run 972
WARNING: No fixes with time integration, atoms won't move (../verlet.cpp:60)
PPPM initialization ...
  using 12-bit tables for long-range coulomb (../kspace.cpp:340)
  G vector (1/distance) = 0.29499882
  grid = 45 45 250
  stencil order = 5
  estimated absolute RMS force accuracy = 0.00038505019
  estimated relative force accuracy = 1.1595672e-06
  using double precision KISS FFT
  3d grid and FFT values/proc = 554040 378675
  generated 45 of 45 mixed pair_coeff terms from arithmetic mixing rule
Neighbor list info ...
  update every 1 steps, delay 0 steps, check yes
  max neighbors/atom: 2000, page size: 100000
  master list distance cutoff = 14
  ghost atom cutoff = 14
  binsize = 7, bins = 4 4 14
  1 neighbor lists, perpetual/occasional/extra = 1 0 0
  (1) pair lj/cut/coul/long, perpetual
      attributes: half, newton on
      pair build: half/bin/newton
      stencil: half/bin/3d
      bin: standard
Per MPI rank memory allocation (min/avg/max) = 24.36 | 35.12 | 63.74 Mbytes
Step v_ftemp PotEng f_swp[1] f_swp[2] 
       0        50000   -790979.14            0            0 
     100        50000   -791538.46          100           73 
     200        50000   -791596.59          200          145 
     300        50000   -790768.62          300          218 
     400        50000   -791193.92          400          287 
     500        50000   -791047.63          500          362 
     600        50000   -791418.51          600          423 
     700        50000    -791551.6          700          494 
     800        50000   -791203.05          800          573 
     900        50000   -791505.23          900          649 
     972        50000   -791408.03          972          698 
Loop time of 282.166 on 4 procs for 972 steps with 4356 atoms

Performance: 0.149 ns/day, 161.275 hours/ns, 3.445 timesteps/s
92.1% CPU use with 4 MPI tasks x no OpenMP threads

MPI task timing breakdown:
Section |  min time  |  avg time  |  max time  |%varavg| %total
---------------------------------------------------------------
Pair    | 3.2621     | 7.7628     | 11.47      | 124.3 |  2.75
Bond    | 0.0016594  | 0.0048204  | 0.013594   |   7.3 |  0.00
Kspace  | 67.412     | 71.116     | 75.622     |  41.1 | 25.20
Neigh   | 18.156     | 18.197     | 18.256     |   0.9 |  6.45
Comm    | 0.54753    | 0.61067    | 0.65557    |   5.3 |  0.22
Output  | 0.00023432 | 0.00055615 | 0.0013495  |   0.0 |  0.00
Modify  | 184.43     | 184.44     | 184.47     |   0.1 | 65.37
Other   |            | 0.02988    |            |       |  0.01

Nlocal:           1089 ave        1494 max         702 min
Histogram: 2 0 0 0 0 0 0 0 1 1
Nghost:           9053 ave       12006 max        5884 min
Histogram: 2 0 0 0 0 0 0 0 0 2
Neighs:         542692 ave      798273 max      221438 min
Histogram: 1 0 1 0 0 0 0 0 0 2

Total # of neighbors = 2170766
Ave neighs/atom = 498.3393
Ave special neighs/atom = 0.05785124
Neighbor list builds = 1944
Dangerous builds = 0

  unfix swp
  thermo_style custom step temp pe

next temp
jump SELF minimize_temp

  variable ftemp equal v_temp

  # Electrostatic relaxation
  fix swp swpFe atom/swap 1 1 ${rand} ${temp} ke no types 6 7
  fix swp swpFe atom/swap 1 1 710414 ${temp} ke no types 6 7
  fix swp swpFe atom/swap 1 1 710414 45000 ke no types 6 7
  thermo 100
  thermo_style custom step v_ftemp pe f_swp[1] f_swp[2]
  run ${nsteps}
  run 972
WARNING: No fixes with time integration, atoms won't move (../verlet.cpp:60)
PPPM initialization ...
  using 12-bit tables for long-range coulomb (../kspace.cpp:340)
  G vector (1/distance) = 0.29499882
  grid = 45 45 250
  stencil order = 5
  estimated absolute RMS force accuracy = 0.00038505019
  estimated relative force accuracy = 1.1595672e-06
  using double precision KISS FFT
  3d grid and FFT values/proc = 554040 378675
  generated 45 of 45 mixed pair_coeff terms from arithmetic mixing rule
Per MPI rank memory allocation (min/avg/max) = 24.36 | 35.12 | 63.74 Mbytes
Step v_ftemp PotEng f_swp[1] f_swp[2] 
     972        45000   -791408.03            0            0 
    1000        45000    -791168.3           28           17 
    1100        45000   -791743.19          128           92 
    1200        45000   -791345.37          228          163 
    1300        45000   -791526.26          328          238 
    1400        45000   -791759.64          428          302 
    1500        45000   -791384.73          528          374 
    1600        45000   -791605.99          628          448 
    1700        45000   -791324.69          728          516 
    1800        45000   -791532.14          828          588 
    1900        45000   -791592.84          928          660 
    1944        45000   -791594.46          972          691 
Loop time of 277.184 on 4 procs for 972 steps with 4356 atoms

Performance: 0.151 ns/day, 158.427 hours/ns, 3.507 timesteps/s
93.8% CPU use with 4 MPI tasks x no OpenMP threads

MPI task timing breakdown:
Section |  min time  |  avg time  |  max time  |%varavg| %total
---------------------------------------------------------------
Pair    | 3.0987     | 7.4328     | 10.938     | 122.0 |  2.68
Bond    | 0.0014471  | 0.0041728  | 0.011859   |   6.9 |  0.00
Kspace  | 66.194     | 69.702     | 74.035     |  39.9 | 25.15
Neigh   | 16.836     | 16.865     | 16.909     |   0.7 |  6.08
Comm    | 0.46553    | 0.52391    | 0.55778    |   5.2 |  0.19
Output  | 0.00021779 | 0.00051135 | 0.0012311  |   0.0 |  0.00
Modify  | 182.62     | 182.63     | 182.64     |   0.1 | 65.89
Other   |            | 0.02711    |            |       |  0.01

Nlocal:           1089 ave        1494 max         702 min
Histogram: 2 0 0 0 0 0 0 0 1 1
Nghost:           9053 ave       12006 max        5884 min
Histogram: 2 0 0 0 0 0 0 0 0 2
Neighs:         542692 ave      798273 max      221438 min
Histogram: 1 0 1 0 0 0 0 0 0 2

Total # of neighbors = 2170766
Ave neighs/atom = 498.3393
Ave special neighs/atom = 0.05785124
Neighbor list builds = 1944
Dangerous builds = 0

  unfix swp
  thermo_style custom step temp pe

next temp
jump SELF minimize_temp

  variable ftemp equal v_temp

  # Electrostatic relaxation
  fix swp swpFe atom/swap 1 1 ${rand} ${temp} ke no types 6 7
  fix swp swpFe atom/swap 1 1 755762 ${temp} ke no types 6 7
  fix swp swpFe atom/swap 1 1 755762 40500 ke no types 6 7
  thermo 100
  thermo_style custom step v_ftemp pe f_swp[1] f_swp[2]
  run ${nsteps}
  run 972
WARNING: No fixes with time integration, atoms won't move (../verlet.cpp:60)
PPPM initialization ...
  using 12-bit tables for long-range coulomb (../kspace.cpp:340)
  G vector (1/distance) = 0.29499882
  grid = 45 45 250
  stencil order = 5
  estimated absolute RMS force accuracy = 0.00038505019
  estimated relative force accuracy = 1.1595672e-06
  using double precision KISS FFT
  3d grid and FFT values/proc = 554040 378675
  generated 45 of 45 mixed pair_coeff terms from arithmetic mixing rule
Per MPI rank memory allocation (min/avg/max) = 24.36 | 35.12 | 63.74 Mbytes
Step v_ftemp PotEng f_swp[1] f_swp[2] 
    1944        40500   -791594.46            0            0 
    2000        40500   -791846.38           56           40 
    2100        40500   -791489.24          156          100 
    2200        40500   -791473.07          256          170 
    2300        40500   -791585.74          356          235 
    2400        40500   -791580.85          456          302 
    2500        40500   -791353.38          556          367 
    2600        40500   -792042.26          656          431 
    2700        40500   -791618.26          756          497 
    2800        40500   -791493.33          856          564 
    2900        40500   -791565.13          956          630 
    2916        40500   -791561.82          972          638 
Loop time of 268.67 on 4 procs for 972 steps with 4356 atoms

Performance: 0.156 ns/day, 153.561 hours/ns, 3.618 timesteps/s
93.9% CPU use with 4 MPI tasks x no OpenMP threads

MPI task timing breakdown:
Section |  min time  |  avg time  |  max time  |%varavg| %total
---------------------------------------------------------------
Pair    | 3.3097     | 7.7481     | 11.409     | 123.7 |  2.88
Bond    | 0.0019516  | 0.0059949  | 0.014189   |   6.3 |  0.00
Kspace  | 63.908     | 67.574     | 72.012     |  41.9 | 25.15
Neigh   | 17.051     | 17.076     | 17.111     |   0.6 |  6.36
Comm    | 0.39098    | 0.43685    | 0.46622    |   4.6 |  0.16
Output  | 0.00028491 | 0.00065904 | 0.0016457  |   0.0 |  0.00
Modify  | 175.79     | 175.8      | 175.81     |   0.1 | 65.43
Other   |            | 0.0307     |            |       |  0.01

Nlocal:           1089 ave        1494 max         702 min
Histogram: 2 0 0 0 0 0 0 0 1 1
Nghost:           9053 ave       12006 max        5884 min
Histogram: 2 0 0 0 0 0 0 0 0 2
Neighs:         542692 ave      798273 max      221438 min
Histogram: 1 0 1 0 0 0 0 0 0 2

Total # of neighbors = 2170766
Ave neighs/atom = 498.3393
Ave special neighs/atom = 0.05785124
Neighbor list builds = 1944
Dangerous builds = 0

  unfix swp
  thermo_style custom step temp pe

next temp
jump SELF minimize_temp

  variable ftemp equal v_temp

  # Electrostatic relaxation
  fix swp swpFe atom/swap 1 1 ${rand} ${temp} ke no types 6 7
  fix swp swpFe atom/swap 1 1 4574249 ${temp} ke no types 6 7
  fix swp swpFe atom/swap 1 1 4574249 36450 ke no types 6 7
  thermo 100
  thermo_style custom step v_ftemp pe f_swp[1] f_swp[2]
  run ${nsteps}
  run 972
WARNING: No fixes with time integration, atoms won't move (../verlet.cpp:60)
PPPM initialization ...
  using 12-bit tables for long-range coulomb (../kspace.cpp:340)
  G vector (1/distance) = 0.29499882
  grid = 45 45 250
  stencil order = 5
  estimated absolute RMS force accuracy = 0.00038505019
  estimated relative force accuracy = 1.1595672e-06
  using double precision KISS FFT
  3d grid and FFT values/proc = 554040 378675
  generated 45 of 45 mixed pair_coeff terms from arithmetic mixing rule
Per MPI rank memory allocation (min/avg/max) = 24.36 | 35.12 | 63.74 Mbytes
Step v_ftemp PotEng f_swp[1] f_swp[2] 
    2916        36450   -791561.82            0            0 
    3000        36450   -791856.64           84           50 
    3100        36450   -791547.76          184          109 
    3200        36450   -791299.53          284          170 
    3300        36450   -791613.36          384          230 
    3400        36450   -791266.91          484          295 
    3500        36450   -791565.21          584          363 
    3600        36450   -791635.69          684          427 
    3700        36450   -791448.37          784          487 
    3800        36450   -791708.52          884          544 
    3888        36450   -791795.12          972          599 
Loop time of 272.66 on 4 procs for 972 steps with 4356 atoms

Performance: 0.154 ns/day, 155.841 hours/ns, 3.565 timesteps/s
94.0% CPU use with 4 MPI tasks x no OpenMP threads

MPI task timing breakdown:
Section |  min time  |  avg time  |  max time  |%varavg| %total
---------------------------------------------------------------
Pair    | 3.1704     | 7.5506     | 11.099     | 122.4 |  2.77
Bond    | 0.0016762  | 0.0047202  | 0.012908   |   6.9 |  0.00
Kspace  | 64.899     | 68.453     | 72.832     |  40.7 | 25.11
Neigh   | 16.866     | 16.893     | 16.934     |   0.7 |  6.20
Comm    | 0.43946    | 0.49273    | 0.5233     |   4.9 |  0.18
Output  | 0.00021303 | 0.00053325 | 0.0013288  |   0.0 |  0.00
Modify  | 179.23     | 179.24     | 179.25     |   0.1 | 65.74
Other   |            | 0.02835    |            |       |  0.01

Nlocal:           1089 ave        1494 max         702 min
Histogram: 2 0 0 0 0 0 0 0 1 1
Nghost:           9053 ave       12006 max        5884 min
Histogram: 2 0 0 0 0 0 0 0 0 2
Neighs:         542692 ave      798273 max      221438 min
Histogram: 1 0 1 0 0 0 0 0 0 2

Total # of neighbors = 2170766
Ave neighs/atom = 498.3393
Ave special neighs/atom = 0.05785124
Neighbor list builds = 1944
Dangerous builds = 0

  unfix swp
  thermo_style custom step temp pe

next temp
jump SELF minimize_temp

  variable ftemp equal v_temp

  # Electrostatic relaxation
  fix swp swpFe atom/swap 1 1 ${rand} ${temp} ke no types 6 7
  fix swp swpFe atom/swap 1 1 5979850 ${temp} ke no types 6 7
  fix swp swpFe atom/swap 1 1 5979850 32805 ke no types 6 7
  thermo 100
  thermo_style custom step v_ftemp pe f_swp[1] f_swp[2]
  run ${nsteps}
  run 972
WARNING: No fixes with time integration, atoms won't move (../verlet.cpp:60)
PPPM initialization ...
  using 12-bit tables for long-range coulomb (../kspace.cpp:340)
  G vector (1/distance) = 0.29499882
  grid = 45 45 250
  stencil order = 5
  estimated absolute RMS force accuracy = 0.00038505019
  estimated relative force accuracy = 1.1595672e-06
  using double precision KISS FFT
  3d grid and FFT values/proc = 554040 378675
  generated 45 of 45 mixed pair_coeff terms from arithmetic mixing rule
Per MPI rank memory allocation (min/avg/max) = 24.36 | 35.12 | 63.74 Mbytes
Step v_ftemp PotEng f_swp[1] f_swp[2] 
    3888        32805   -791795.12            0            0 
    3900        32805   -791797.12           12            5 
    4000        32805   -791319.37          112           53 
    4100        32805   -791867.02          212          104 
    4200        32805   -791549.39          312          165 
    4300        32805    -791566.4          412          227 
    4400        32805   -791298.34          512          288 
    4500        32805   -791861.95          612          343 
    4600        32805    -791674.6          712          411 
    4700        32805   -791671.98          812          471 
    4800        32805    -791521.2          912          528 
    4860        32805    -791639.1          972          565 
Loop time of 263.939 on 4 procs for 972 steps with 4356 atoms

Performance: 0.159 ns/day, 150.857 hours/ns, 3.683 timesteps/s
94.4% CPU use with 4 MPI tasks x no OpenMP threads

MPI task timing breakdown:
Section |  min time  |  avg time  |  max time  |%varavg| %total
---------------------------------------------------------------
Pair    | 3.2208     | 7.6246     | 11.163     | 122.3 |  2.89
Bond    | 0.0013175  | 0.0048831  | 0.013708   |   7.3 |  0.00
Kspace  | 61.792     | 65.332     | 69.734     |  41.8 | 24.75
Neigh   | 16.856     | 16.88      | 16.916     |   0.6 |  6.40
Comm    | 0.39982    | 0.44711    | 0.47475    |   4.6 |  0.17
Output  | 0.00020749 | 0.00048834 | 0.001182   |   0.0 |  0.00
Modify  | 173.61     | 173.62     | 173.63     |   0.1 | 65.78
Other   |            | 0.02878    |            |       |  0.01

Nlocal:           1089 ave        1494 max         702 min
Histogram: 2 0 0 0 0 0 0 0 1 1
Nghost:           9053 ave       12006 max        5884 min
Histogram: 2 0 0 0 0 0 0 0 0 2
Neighs:         542692 ave      798273 max      221438 min
Histogram: 1 0 1 0 0 0 0 0 0 2

Total # of neighbors = 2170766
Ave neighs/atom = 498.3393
Ave special neighs/atom = 0.05785124
Neighbor list builds = 1944
Dangerous builds = 0

  unfix swp
  thermo_style custom step temp pe

next temp
jump SELF minimize_temp

  variable ftemp equal v_temp

  # Electrostatic relaxation
  fix swp swpFe atom/swap 1 1 ${rand} ${temp} ke no types 6 7
  fix swp swpFe atom/swap 1 1 2707118 ${temp} ke no types 6 7
  fix swp swpFe atom/swap 1 1 2707118 29524 ke no types 6 7
  thermo 100
  thermo_style custom step v_ftemp pe f_swp[1] f_swp[2]
  run ${nsteps}
  run 972
WARNING: No fixes with time integration, atoms won't move (../verlet.cpp:60)
PPPM initialization ...
  using 12-bit tables for long-range coulomb (../kspace.cpp:340)
  G vector (1/distance) = 0.29499882
  grid = 45 45 250
  stencil order = 5
  estimated absolute RMS force accuracy = 0.00038505019
  estimated relative force accuracy = 1.1595672e-06
  using double precision KISS FFT
  3d grid and FFT values/proc = 554040 378675
  generated 45 of 45 mixed pair_coeff terms from arithmetic mixing rule
Per MPI rank memory allocation (min/avg/max) = 24.36 | 35.12 | 63.74 Mbytes
Step v_ftemp PotEng f_swp[1] f_swp[2] 
    4860        29524    -791639.1            0            0 
    4900        29524   -791845.56           40           21 
    5000        29524   -791830.71          140           71 
    5100        29524   -791664.05          240          130 
    5200        29524   -791551.49          340          187 
    5300        29524   -791809.98          440          243 
    5400        29524   -791747.65          540          301 
    5500        29524   -791705.61          640          359 
    5600        29524   -791567.49          740          417 
    5700        29524   -791783.72          840          476 
    5800        29524   -791467.19          940          534 
    5832        29524   -791379.59          972          554 
Loop time of 265.464 on 4 procs for 972 steps with 4356 atoms

Performance: 0.158 ns/day, 151.728 hours/ns, 3.662 timesteps/s
94.2% CPU use with 4 MPI tasks x no OpenMP threads

MPI task timing breakdown:
Section |  min time  |  avg time  |  max time  |%varavg| %total
---------------------------------------------------------------
Pair    | 3.1936     | 7.547      | 11.015     | 121.5 |  2.84
Bond    | 0.0012372  | 0.0044853  | 0.012488   |   6.9 |  0.00
Kspace  | 63.073     | 66.543     | 70.895     |  40.9 | 25.07
Neigh   | 16.765     | 16.789     | 16.824     |   0.6 |  6.32
Comm    | 0.39899    | 0.44531    | 0.47305    |   4.5 |  0.17
Output  | 0.00020403 | 0.00045412 | 0.0010657  |   0.0 |  0.00
Modify  | 174.1      | 174.11     | 174.12     |   0.1 | 65.59
Other   |            | 0.02733    |            |       |  0.01

Nlocal:           1089 ave        1494 max         702 min
Histogram: 2 0 0 0 0 0 0 0 1 1
Nghost:           9053 ave       12006 max        5884 min
Histogram: 2 0 0 0 0 0 0 0 0 2
Neighs:         542692 ave      798273 max      221438 min
Histogram: 1 0 1 0 0 0 0 0 0 2

Total # of neighbors = 2170766
Ave neighs/atom = 498.3393
Ave special neighs/atom = 0.05785124
Neighbor list builds = 1944
Dangerous builds = 0

  unfix swp
  thermo_style custom step temp pe

next temp
jump SELF minimize_temp

  variable ftemp equal v_temp

  # Electrostatic relaxation
  fix swp swpFe atom/swap 1 1 ${rand} ${temp} ke no types 6 7
  fix swp swpFe atom/swap 1 1 1165944 ${temp} ke no types 6 7
  fix swp swpFe atom/swap 1 1 1165944 26571 ke no types 6 7
  thermo 100
  thermo_style custom step v_ftemp pe f_swp[1] f_swp[2]
  run ${nsteps}
  run 972
WARNING: No fixes with time integration, atoms won't move (../verlet.cpp:60)
PPPM initialization ...
  using 12-bit tables for long-range coulomb (../kspace.cpp:340)
  G vector (1/distance) = 0.29499882
  grid = 45 45 250
  stencil order = 5
  estimated absolute RMS force accuracy = 0.00038505019
  estimated relative force accuracy = 1.1595672e-06
  using double precision KISS FFT
  3d grid and FFT values/proc = 554040 378675
  generated 45 of 45 mixed pair_coeff terms from arithmetic mixing rule
Per MPI rank memory allocation (min/avg/max) = 24.36 | 35.12 | 63.74 Mbytes
Step v_ftemp PotEng f_swp[1] f_swp[2] 
    5832        26571   -791379.59            0            0 
    5900        26571   -791804.39           68           38 
    6000        26571    -791543.4          168           93 
    6100        26571   -791753.27          268          145 
    6200        26571   -791953.48          368          189 
    6300        26571   -791748.95          468          245 
    6400        26571   -791799.53          568          297 
    6500        26571   -791845.48          668          348 
    6600        26571   -791845.25          768          406 
    6700        26571   -791917.95          868          455 
    6800        26571   -791995.87          968          507 
    6804        26571   -791962.63          972          509 
Loop time of 266.345 on 4 procs for 972 steps with 4356 atoms

Performance: 0.158 ns/day, 152.232 hours/ns, 3.649 timesteps/s
94.6% CPU use with 4 MPI tasks x no OpenMP threads

MPI task timing breakdown:
Section |  min time  |  avg time  |  max time  |%varavg| %total
---------------------------------------------------------------
Pair    | 3.0936     | 7.3845     | 10.854     | 120.6 |  2.77
Bond    | 0.00084561 | 0.0037416  | 0.011054   |   6.9 |  0.00
Kspace  | 63.005     | 66.477     | 70.767     |  40.2 | 24.96
Neigh   | 16.82      | 16.847     | 16.889     |   0.7 |  6.33
Comm    | 0.46486    | 0.52366    | 0.55601    |   5.1 |  0.20
Output  | 0.00023704 | 0.00063726 | 0.0016775  |   0.0 |  0.00
Modify  | 175.07     | 175.08     | 175.1      |   0.1 | 65.74
Other   |            | 0.02667    |            |       |  0.01

Nlocal:           1089 ave        1494 max         702 min
Histogram: 2 0 0 0 0 0 0 0 1 1
Nghost:           9053 ave       12006 max        5884 min
Histogram: 2 0 0 0 0 0 0 0 0 2
Neighs:         542692 ave      798273 max      221438 min
Histogram: 1 0 1 0 0 0 0 0 0 2

Total # of neighbors = 2170766
Ave neighs/atom = 498.3393
Ave special neighs/atom = 0.05785124
Neighbor list builds = 1944
Dangerous builds = 0

  unfix swp
  thermo_style custom step temp pe

next temp
jump SELF minimize_temp

  variable ftemp equal v_temp

  # Electrostatic relaxation
  fix swp swpFe atom/swap 1 1 ${rand} ${temp} ke no types 6 7
  fix swp swpFe atom/swap 1 1 3631288 ${temp} ke no types 6 7
  fix swp swpFe atom/swap 1 1 3631288 23913 ke no types 6 7
  thermo 100
  thermo_style custom step v_ftemp pe f_swp[1] f_swp[2]
  run ${nsteps}
  run 972
WARNING: No fixes with time integration, atoms won't move (../verlet.cpp:60)
PPPM initialization ...
  using 12-bit tables for long-range coulomb (../kspace.cpp:340)
  G vector (1/distance) = 0.29499882
  grid = 45 45 250
  stencil order = 5
  estimated absolute RMS force accuracy = 0.00038505019
  estimated relative force accuracy = 1.1595672e-06
  using double precision KISS FFT
  3d grid and FFT values/proc = 554040 378675
  generated 45 of 45 mixed pair_coeff terms from arithmetic mixing rule
Per MPI rank memory allocation (min/avg/max) = 24.36 | 35.12 | 63.74 Mbytes
Step v_ftemp PotEng f_swp[1] f_swp[2] 
    6804        23913   -791962.63            0            0 
    6900        23913   -791667.45           96           40 
    7000        23913   -791625.16          196          102 
    7100        23913   -791853.09          296          150 
    7200        23913   -791852.79          396          197 
    7300        23913   -791705.47          496          255 
    7400        23913   -791697.27          596          312 
    7500        23913   -791861.26          696          370 
    7600        23913   -791860.45          796          419 
    7700        23913   -791788.88          896          468 
    7776        23913   -791994.05          972          501 
Loop time of 269.711 on 4 procs for 972 steps with 4356 atoms

Performance: 0.156 ns/day, 154.156 hours/ns, 3.604 timesteps/s
94.3% CPU use with 4 MPI tasks x no OpenMP threads

MPI task timing breakdown:
Section |  min time  |  avg time  |  max time  |%varavg| %total
---------------------------------------------------------------
Pair    | 3.1179     | 7.3896     | 10.86      | 120.3 |  2.74
Bond    | 0.0010066  | 0.0038228  | 0.011081   |   6.8 |  0.00
Kspace  | 64.501     | 67.973     | 72.244     |  39.7 | 25.20
Neigh   | 16.692     | 16.718     | 16.755     |   0.6 |  6.20
Comm    | 0.43579    | 0.4873     | 0.51834    |   4.8 |  0.18
Output  | 0.00020811 | 0.00049711 | 0.0012038  |   0.0 |  0.00
Modify  | 177.1      | 177.11     | 177.13     |   0.1 | 65.67
Other   |            | 0.02648    |            |       |  0.01

Nlocal:           1089 ave        1494 max         702 min
Histogram: 2 0 0 0 0 0 0 0 1 1
Nghost:           9053 ave       12006 max        5884 min
Histogram: 2 0 0 0 0 0 0 0 0 2
Neighs:         542692 ave      798273 max      221438 min
Histogram: 1 0 1 0 0 0 0 0 0 2

Total # of neighbors = 2170766
Ave neighs/atom = 498.3393
Ave special neighs/atom = 0.05785124
Neighbor list builds = 1944
Dangerous builds = 0

  unfix swp
  thermo_style custom step temp pe

next temp
jump SELF minimize_temp

  variable ftemp equal v_temp

  # Electrostatic relaxation
  fix swp swpFe atom/swap 1 1 ${rand} ${temp} ke no types 6 7
  fix swp swpFe atom/swap 1 1 7952271 ${temp} ke no types 6 7
  fix swp swpFe atom/swap 1 1 7952271 21521 ke no types 6 7
  thermo 100
  thermo_style custom step v_ftemp pe f_swp[1] f_swp[2]
  run ${nsteps}
  run 972
WARNING: No fixes with time integration, atoms won't move (../verlet.cpp:60)
PPPM initialization ...
  using 12-bit tables for long-range coulomb (../kspace.cpp:340)
  G vector (1/distance) = 0.29499882
  grid = 45 45 250
  stencil order = 5
  estimated absolute RMS force accuracy = 0.00038505019
  estimated relative force accuracy = 1.1595672e-06
  using double precision KISS FFT
  3d grid and FFT values/proc = 554040 378675
  generated 45 of 45 mixed pair_coeff terms from arithmetic mixing rule
Per MPI rank memory allocation (min/avg/max) = 24.36 | 35.12 | 63.74 Mbytes
Step v_ftemp PotEng f_swp[1] f_swp[2] 
    7776        21521   -791994.05            0            0 
    7800        21521   -792062.87           24           16 
    7900        21521   -791885.62          124           54 
    8000        21521   -791757.68          224          105 
    8100        21521   -791908.79          324          155 
    8200        21521   -791621.82          424          208 
    8300        21521   -792058.92          524          249 
    8400        21521   -792020.31          624          294 
    8500        21521   -791909.15          724          348 
    8600        21521   -791888.58          824          390 
    8700        21521    -791892.6          924          433 
    8748        21521   -792115.77          972          456 
Loop time of 266.429 on 4 procs for 972 steps with 4356 atoms

Performance: 0.158 ns/day, 152.280 hours/ns, 3.648 timesteps/s
94.4% CPU use with 4 MPI tasks x no OpenMP threads

MPI task timing breakdown:
Section |  min time  |  avg time  |  max time  |%varavg| %total
---------------------------------------------------------------
Pair    | 3.1456     | 7.5095     | 11.098     | 122.6 |  2.82
Bond    | 0.001274   | 0.0050032  | 0.015032   |   8.2 |  0.00
Kspace  | 64.03      | 67.62      | 71.98      |  40.9 | 25.38
Neigh   | 16.709     | 16.733     | 16.768     |   0.6 |  6.28
Comm    | 0.39975    | 0.44594    | 0.47348    |   4.6 |  0.17
Output  | 0.00022442 | 0.00054464 | 0.0013212  |   0.0 |  0.00
Modify  | 174.08     | 174.09     | 174.1      |   0.1 | 65.34
Other   |            | 0.02489    |            |       |  0.01

Nlocal:           1089 ave        1494 max         702 min
Histogram: 2 0 0 0 0 0 0 0 1 1
Nghost:           9053 ave       12006 max        5884 min
Histogram: 2 0 0 0 0 0 0 0 0 2
Neighs:         542692 ave      798273 max      221438 min
Histogram: 1 0 1 0 0 0 0 0 0 2

Total # of neighbors = 2170766
Ave neighs/atom = 498.3393
Ave special neighs/atom = 0.05785124
Neighbor list builds = 1944
Dangerous builds = 0

  unfix swp
  thermo_style custom step temp pe

next temp
jump SELF minimize_temp

  variable ftemp equal v_temp

  # Electrostatic relaxation
  fix swp swpFe atom/swap 1 1 ${rand} ${temp} ke no types 6 7
  fix swp swpFe atom/swap 1 1 185888 ${temp} ke no types 6 7
  fix swp swpFe atom/swap 1 1 185888 19368 ke no types 6 7
  thermo 100
  thermo_style custom step v_ftemp pe f_swp[1] f_swp[2]
  run ${nsteps}
  run 972
WARNING: No fixes with time integration, atoms won't move (../verlet.cpp:60)
PPPM initialization ...
  using 12-bit tables for long-range coulomb (../kspace.cpp:340)
  G vector (1/distance) = 0.29499882
  grid = 45 45 250
  stencil order = 5
  estimated absolute RMS force accuracy = 0.00038505019
  estimated relative force accuracy = 1.1595672e-06
  using double precision KISS FFT
  3d grid and FFT values/proc = 554040 378675
  generated 45 of 45 mixed pair_coeff terms from arithmetic mixing rule
Per MPI rank memory allocation (min/avg/max) = 24.36 | 35.12 | 63.74 Mbytes
Step v_ftemp PotEng f_swp[1] f_swp[2] 
    8748        19368   -792115.77            0            0 
    8800        19368   -792009.21           52           17 
    8900        19368   -791821.87          152           60 
    9000        19368    -792225.2          252           98 
    9100        19368   -792054.32          352          131 
    9200        19368   -791999.49          452          179 
    9300        19368   -791720.39          552          219 
    9400        19368   -791955.54          652          265 
    9500        19368   -792071.54          752          309 
    9600        19368   -791857.46          852          350 
    9700        19368   -791805.28          952          400 
    9720        19368   -791824.71          972          408 
Loop time of 265.855 on 4 procs for 972 steps with 4356 atoms

Performance: 0.158 ns/day, 151.952 hours/ns, 3.656 timesteps/s
94.1% CPU use with 4 MPI tasks x no OpenMP threads

MPI task timing breakdown:
Section |  min time  |  avg time  |  max time  |%varavg| %total
---------------------------------------------------------------
Pair    | 3.209      | 7.6031     | 11.191     | 122.5 |  2.86
Bond    | 0.0014642  | 0.0047073  | 0.01305    |   7.0 |  0.00
Kspace  | 63.682     | 67.271     | 71.664     |  41.2 | 25.30
Neigh   | 16.739     | 16.762     | 16.796     |   0.6 |  6.31
Comm    | 0.38834    | 0.43379    | 0.46184    |   4.6 |  0.16
Output  | 0.0002375  | 0.0005854  | 0.0014945  |   0.0 |  0.00
Modify  | 173.74     | 173.75     | 173.77     |   0.1 | 65.36
Other   |            | 0.02539    |            |       |  0.01

Nlocal:           1089 ave        1494 max         702 min
Histogram: 2 0 0 0 0 0 0 0 1 1
Nghost:           9053 ave       12006 max        5884 min
Histogram: 2 0 0 0 0 0 0 0 0 2
Neighs:         542692 ave      798273 max      221438 min
Histogram: 1 0 1 0 0 0 0 0 0 2

Total # of neighbors = 2170766
Ave neighs/atom = 498.3393
Ave special neighs/atom = 0.05785124
Neighbor list builds = 1944
Dangerous builds = 0

  unfix swp
  thermo_style custom step temp pe

next temp
jump SELF minimize_temp

  variable ftemp equal v_temp

  # Electrostatic relaxation
  fix swp swpFe atom/swap 1 1 ${rand} ${temp} ke no types 6 7
  fix swp swpFe atom/swap 1 1 7935996 ${temp} ke no types 6 7
  fix swp swpFe atom/swap 1 1 7935996 17431 ke no types 6 7
  thermo 100
  thermo_style custom step v_ftemp pe f_swp[1] f_swp[2]
  run ${nsteps}
  run 972
WARNING: No fixes with time integration, atoms won't move (../verlet.cpp:60)
PPPM initialization ...
  using 12-bit tables for long-range coulomb (../kspace.cpp:340)
  G vector (1/distance) = 0.29499882
  grid = 45 45 250
  stencil order = 5
  estimated absolute RMS force accuracy = 0.00038505019
  estimated relative force accuracy = 1.1595672e-06
  using double precision KISS FFT
  3d grid and FFT values/proc = 554040 378675
  generated 45 of 45 mixed pair_coeff terms from arithmetic mixing rule
Per MPI rank memory allocation (min/avg/max) = 24.36 | 35.12 | 63.74 Mbytes
Step v_ftemp PotEng f_swp[1] f_swp[2] 
    9720        17431   -791824.71            0            0 
    9800        17431   -791861.72           80           29 
    9900        17431   -791877.34          180           78 
   10000        17431   -791858.34          280          137 
   10100        17431    -791958.6          380          183 
   10200        17431   -791977.72          480          212 
   10300        17431   -792051.87          580          257 
   10400        17431   -791610.47          680          308 
   10500        17431   -792093.93          780          356 
   10600        17431   -792121.65          880          384 
   10692        17431    -792108.4          972          420 
Loop time of 266.636 on 4 procs for 972 steps with 4356 atoms

Performance: 0.157 ns/day, 152.398 hours/ns, 3.645 timesteps/s
94.1% CPU use with 4 MPI tasks x no OpenMP threads

MPI task timing breakdown:
Section |  min time  |  avg time  |  max time  |%varavg| %total
---------------------------------------------------------------
Pair    | 3.1449     | 7.4749     | 10.96      | 121.3 |  2.80
Bond    | 0.0012037  | 0.0042864  | 0.012058   |   6.9 |  0.00
Kspace  | 63.252     | 66.739     | 71.068     |  40.6 | 25.03
Neigh   | 16.776     | 16.803     | 16.844     |   0.7 |  6.30
Comm    | 0.42048    | 0.47364    | 0.50507    |   5.0 |  0.18
Output  | 0.00021176 | 0.00051808 | 0.0012807  |   0.0 |  0.00
Modify  | 175.1      | 175.11     | 175.13     |   0.1 | 65.68
Other   |            | 0.02582    |            |       |  0.01

Nlocal:           1089 ave        1494 max         702 min
Histogram: 2 0 0 0 0 0 0 0 1 1
Nghost:           9053 ave       12006 max        5884 min
Histogram: 2 0 0 0 0 0 0 0 0 2
Neighs:         542692 ave      798273 max      221438 min
Histogram: 1 0 1 0 0 0 0 0 0 2

Total # of neighbors = 2170766
Ave neighs/atom = 498.3393
Ave special neighs/atom = 0.05785124
Neighbor list builds = 1944
Dangerous builds = 0

  unfix swp
  thermo_style custom step temp pe

next temp
jump SELF minimize_temp

  variable ftemp equal v_temp

  # Electrostatic relaxation
  fix swp swpFe atom/swap 1 1 ${rand} ${temp} ke no types 6 7
  fix swp swpFe atom/swap 1 1 473855 ${temp} ke no types 6 7
  fix swp swpFe atom/swap 1 1 473855 15687 ke no types 6 7
  thermo 100
  thermo_style custom step v_ftemp pe f_swp[1] f_swp[2]
  run ${nsteps}
  run 972
WARNING: No fixes with time integration, atoms won't move (../verlet.cpp:60)
PPPM initialization ...
  using 12-bit tables for long-range coulomb (../kspace.cpp:340)
  G vector (1/distance) = 0.29499882
  grid = 45 45 250
  stencil order = 5
  estimated absolute RMS force accuracy = 0.00038505019
  estimated relative force accuracy = 1.1595672e-06
  using double precision KISS FFT
  3d grid and FFT values/proc = 554040 378675
  generated 45 of 45 mixed pair_coeff terms from arithmetic mixing rule
Per MPI rank memory allocation (min/avg/max) = 24.36 | 35.12 | 63.74 Mbytes
Step v_ftemp PotEng f_swp[1] f_swp[2] 
   10692        15687    -792108.4            0            0 
   10700        15687   -792056.11            8            2 
   10800        15687   -791897.73          108           37 
   10900        15687   -791956.84          208           70 
   11000        15687   -792159.34          308          109 
   11100        15687    -792064.7          408          144 
   11200        15687   -792165.31          508          185 
   11300        15687   -792006.62          608          217 
   11400        15687   -792152.54          708          255 
   11500        15687    -792149.8          808          289 
   11600        15687    -791988.5          908          324 
   11664        15687   -792154.55          972          349 
Loop time of 266.754 on 4 procs for 972 steps with 4356 atoms

Performance: 0.157 ns/day, 152.466 hours/ns, 3.644 timesteps/s
94.2% CPU use with 4 MPI tasks x no OpenMP threads

MPI task timing breakdown:
Section |  min time  |  avg time  |  max time  |%varavg| %total
---------------------------------------------------------------
Pair    | 3.1727     | 7.5699     | 11.203     | 122.6 |  2.84
Bond    | 0.0016949  | 0.0045953  | 0.012496   |   6.7 |  0.00
Kspace  | 63.283     | 66.916     | 71.312     |  41.2 | 25.09
Neigh   | 16.967     | 16.993     | 17.028     |   0.6 |  6.37
Comm    | 0.42079    | 0.46651    | 0.49567    |   4.5 |  0.17
Output  | 0.00022153 | 0.0005427  | 0.0012496  |   0.0 |  0.00
Modify  | 174.77     | 174.78     | 174.79     |   0.1 | 65.52
Other   |            | 0.0264     |            |       |  0.01

Nlocal:           1089 ave        1494 max         702 min
Histogram: 2 0 0 0 0 0 0 0 1 1
Nghost:           9053 ave       12006 max        5884 min
Histogram: 2 0 0 0 0 0 0 0 0 2
Neighs:         542692 ave      798273 max      221438 min
Histogram: 1 0 1 0 0 0 0 0 0 2

Total # of neighbors = 2170766
Ave neighs/atom = 498.3393
Ave special neighs/atom = 0.05785124
Neighbor list builds = 1944
Dangerous builds = 0

  unfix swp
  thermo_style custom step temp pe

next temp
jump SELF minimize_temp

  variable ftemp equal v_temp

  # Electrostatic relaxation
  fix swp swpFe atom/swap 1 1 ${rand} ${temp} ke no types 6 7
  fix swp swpFe atom/swap 1 1 7716369 ${temp} ke no types 6 7
  fix swp swpFe atom/swap 1 1 7716369 14118 ke no types 6 7
  thermo 100
  thermo_style custom step v_ftemp pe f_swp[1] f_swp[2]
  run ${nsteps}
  run 972
WARNING: No fixes with time integration, atoms won't move (../verlet.cpp:60)
PPPM initialization ...
  using 12-bit tables for long-range coulomb (../kspace.cpp:340)
  G vector (1/distance) = 0.29499882
  grid = 45 45 250
  stencil order = 5
  estimated absolute RMS force accuracy = 0.00038505019
  estimated relative force accuracy = 1.1595672e-06
  using double precision KISS FFT
  3d grid and FFT values/proc = 554040 378675
  generated 45 of 45 mixed pair_coeff terms from arithmetic mixing rule
Per MPI rank memory allocation (min/avg/max) = 24.36 | 35.12 | 63.74 Mbytes
Step v_ftemp PotEng f_swp[1] f_swp[2] 
   11664        14118   -792154.55            0            0 
   11700        14118   -792152.71           36           18 
   11800        14118   -791999.78          136           50 
   11900        14118   -791982.67          236           87 
   12000        14118   -792103.16          336          125 
   12100        14118   -792100.86          436          166 
   12200        14118    -791916.5          536          205 
   12300        14118   -792100.63          636          247 
   12400        14118   -792060.54          736          279 
   12500        14118   -792160.16          836          321 
   12600        14118   -792123.48          936          358 
   12636        14118   -792028.06          972          371 
Loop time of 265.679 on 4 procs for 972 steps with 4356 atoms

Performance: 0.158 ns/day, 151.851 hours/ns, 3.659 timesteps/s
94.1% CPU use with 4 MPI tasks x no OpenMP threads

MPI task timing breakdown:
Section |  min time  |  avg time  |  max time  |%varavg| %total
---------------------------------------------------------------
Pair    | 3.1928     | 7.6187     | 11.265     | 123.1 |  2.87
Bond    | 0.0019948  | 0.0047824  | 0.01286    |   6.7 |  0.00
Kspace  | 62.161     | 65.81      | 70.235     |  41.9 | 24.77
Neigh   | 17.196     | 17.219     | 17.253     |   0.6 |  6.48
Comm    | 0.39828    | 0.44282    | 0.47082    |   4.5 |  0.17
Output  | 0.00023437 | 0.00062516 | 0.0016239  |   0.0 |  0.00
Modify  | 174.54     | 174.56     | 174.57     |   0.1 | 65.70
Other   |            | 0.02775    |            |       |  0.01

Nlocal:           1089 ave        1494 max         702 min
Histogram: 2 0 0 0 0 0 0 0 1 1
Nghost:           9053 ave       12006 max        5884 min
Histogram: 2 0 0 0 0 0 0 0 0 2
Neighs:         542692 ave      798273 max      221438 min
Histogram: 1 0 1 0 0 0 0 0 0 2

Total # of neighbors = 2170766
Ave neighs/atom = 498.3393
Ave special neighs/atom = 0.05785124
Neighbor list builds = 1944
Dangerous builds = 0

  unfix swp
  thermo_style custom step temp pe

next temp
jump SELF minimize_temp

  variable ftemp equal v_temp

  # Electrostatic relaxation
  fix swp swpFe atom/swap 1 1 ${rand} ${temp} ke no types 6 7
  fix swp swpFe atom/swap 1 1 8487327 ${temp} ke no types 6 7
  fix swp swpFe atom/swap 1 1 8487327 12706 ke no types 6 7
  thermo 100
  thermo_style custom step v_ftemp pe f_swp[1] f_swp[2]
  run ${nsteps}
  run 972
WARNING: No fixes with time integration, atoms won't move (../verlet.cpp:60)
PPPM initialization ...
  using 12-bit tables for long-range coulomb (../kspace.cpp:340)
  G vector (1/distance) = 0.29499882
  grid = 45 45 250
  stencil order = 5
  estimated absolute RMS force accuracy = 0.00038505019
  estimated relative force accuracy = 1.1595672e-06
  using double precision KISS FFT
  3d grid and FFT values/proc = 554040 378675
  generated 45 of 45 mixed pair_coeff terms from arithmetic mixing rule
Per MPI rank memory allocation (min/avg/max) = 24.36 | 35.12 | 63.74 Mbytes
Step v_ftemp PotEng f_swp[1] f_swp[2] 
   12636        12706   -792028.06            0            0 
   12700        12706   -792186.96           64           24 
   12800        12706   -792159.13          164           56 
   12900        12706   -792246.62          264           79 
   13000        12706   -792309.43          364          109 
   13100        12706   -792120.41          464          148 
   13200        12706   -792261.53          564          174 
   13300        12706   -792200.79          664          206 
   13400        12706   -792056.71          764          233 
   13500        12706    -792067.3          864          268 
   13600        12706   -791982.68          964          303 
   13608        12706   -792062.97          972          305 
Loop time of 268.984 on 4 procs for 972 steps with 4356 atoms

Performance: 0.156 ns/day, 153.740 hours/ns, 3.614 timesteps/s
94.5% CPU use with 4 MPI tasks x no OpenMP threads

MPI task timing breakdown:
Section |  min time  |  avg time  |  max time  |%varavg| %total
---------------------------------------------------------------
Pair    | 3.1546     | 7.4719     | 11.063     | 121.0 |  2.78
Bond    | 0.0014405  | 0.0041194  | 0.011793   |   6.9 |  0.00
Kspace  | 63.707     | 67.301     | 71.617     |  40.3 | 25.02
Neigh   | 16.914     | 16.939     | 16.977     |   0.6 |  6.30
Comm    | 0.42703    | 0.47692    | 0.50643    |   4.7 |  0.18
Output  | 0.00021106 | 0.00053247 | 0.0013351  |   0.0 |  0.00
Modify  | 176.75     | 176.76     | 176.78     |   0.1 | 65.72
Other   |            | 0.02676    |            |       |  0.01

Nlocal:           1089 ave        1494 max         702 min
Histogram: 2 0 0 0 0 0 0 0 1 1
Nghost:           9053 ave       12006 max        5884 min
Histogram: 2 0 0 0 0 0 0 0 0 2
Neighs:         542692 ave      798273 max      221438 min
Histogram: 1 0 1 0 0 0 0 0 0 2

Total # of neighbors = 2170766
Ave neighs/atom = 498.3393
Ave special neighs/atom = 0.05785124
Neighbor list builds = 1944
Dangerous builds = 0

  unfix swp
  thermo_style custom step temp pe

next temp
jump SELF minimize_temp

  variable ftemp equal v_temp

  # Electrostatic relaxation
  fix swp swpFe atom/swap 1 1 ${rand} ${temp} ke no types 6 7
  fix swp swpFe atom/swap 1 1 8505477 ${temp} ke no types 6 7
  fix swp swpFe atom/swap 1 1 8505477 11435 ke no types 6 7
  thermo 100
  thermo_style custom step v_ftemp pe f_swp[1] f_swp[2]
  run ${nsteps}
  run 972
WARNING: No fixes with time integration, atoms won't move (../verlet.cpp:60)
PPPM initialization ...
  using 12-bit tables for long-range coulomb (../kspace.cpp:340)
  G vector (1/distance) = 0.29499882
  grid = 45 45 250
  stencil order = 5
  estimated absolute RMS force accuracy = 0.00038505019
  estimated relative force accuracy = 1.1595672e-06
  using double precision KISS FFT
  3d grid and FFT values/proc = 554040 378675
  generated 45 of 45 mixed pair_coeff terms from arithmetic mixing rule
Per MPI rank memory allocation (min/avg/max) = 24.36 | 35.12 | 63.74 Mbytes
Step v_ftemp PotEng f_swp[1] f_swp[2] 
   13608        11435   -792062.97            0            0 
   13700        11435   -792038.22           92           27 
   13800        11435   -792274.73          192           59 
   13900        11435   -792133.24          292           88 
   14000        11435   -792154.91          392          122 
   14100        11435   -792214.38          492          148 
   14200        11435    -792180.2          592          174 
   14300        11435   -792194.97          692          205 
   14400        11435   -792258.38          792          230 
   14500        11435   -792253.96          892          258 
   14580        11435   -792212.12          972          276 
Loop time of 269.848 on 4 procs for 972 steps with 4356 atoms

Performance: 0.156 ns/day, 154.234 hours/ns, 3.602 timesteps/s
94.4% CPU use with 4 MPI tasks x no OpenMP threads

MPI task timing breakdown:
Section |  min time  |  avg time  |  max time  |%varavg| %total
---------------------------------------------------------------
Pair    | 3.1071     | 7.4308     | 10.965     | 122.0 |  2.75
Bond    | 0.0015532  | 0.003986   | 0.01114    |   6.5 |  0.00
Kspace  | 64.46      | 67.991     | 72.319     |  40.4 | 25.20
Neigh   | 16.948     | 16.971     | 17.014     |   0.7 |  6.29
Comm    | 0.42937    | 0.47796    | 0.50846    |   4.7 |  0.18
Output  | 0.00019616 | 0.0005962  | 0.001632   |   0.0 |  0.00
Modify  | 176.93     | 176.95     | 176.96     |   0.1 | 65.57
Other   |            | 0.02508    |            |       |  0.01

Nlocal:           1089 ave        1494 max         702 min
Histogram: 2 0 0 0 0 0 0 0 1 1
Nghost:           9053 ave       12006 max        5884 min
Histogram: 2 0 0 0 0 0 0 0 0 2
Neighs:         542692 ave      798273 max      221438 min
Histogram: 1 0 1 0 0 0 0 0 0 2

Total # of neighbors = 2170766
Ave neighs/atom = 498.3393
Ave special neighs/atom = 0.05785124
Neighbor list builds = 1944
Dangerous builds = 0

  unfix swp
  thermo_style custom step temp pe

next temp
jump SELF minimize_temp

  variable ftemp equal v_temp

  # Electrostatic relaxation
  fix swp swpFe atom/swap 1 1 ${rand} ${temp} ke no types 6 7
  fix swp swpFe atom/swap 1 1 980195 ${temp} ke no types 6 7
  fix swp swpFe atom/swap 1 1 980195 10291 ke no types 6 7
  thermo 100
  thermo_style custom step v_ftemp pe f_swp[1] f_swp[2]
  run ${nsteps}
  run 972
WARNING: No fixes with time integration, atoms won't move (../verlet.cpp:60)
PPPM initialization ...
  using 12-bit tables for long-range coulomb (../kspace.cpp:340)
  G vector (1/distance) = 0.29499882
  grid = 45 45 250
  stencil order = 5
  estimated absolute RMS force accuracy = 0.00038505019
  estimated relative force accuracy = 1.1595672e-06
  using double precision KISS FFT
  3d grid and FFT values/proc = 554040 378675
  generated 45 of 45 mixed pair_coeff terms from arithmetic mixing rule
Per MPI rank memory allocation (min/avg/max) = 24.36 | 35.12 | 63.74 Mbytes
Step v_ftemp PotEng f_swp[1] f_swp[2] 
   14580        10291   -792212.12            0            0 
   14600        10291   -792260.84           20            6 
   14700        10291   -792227.15          120           34 
   14800        10291   -792216.23          220           64 
   14900        10291   -792329.73          320           81 
   15000        10291   -792257.72          420          106 
   15100        10291   -792019.75          520          133 
   15200        10291   -792182.63          620          161 
   15300        10291   -792311.74          720          190 
   15400        10291   -792182.45          820          221 
   15500        10291   -792239.19          920          252 
   15552        10291   -792190.53          972          264 
Loop time of 267.161 on 4 procs for 972 steps with 4356 atoms

Performance: 0.157 ns/day, 152.699 hours/ns, 3.638 timesteps/s
94.3% CPU use with 4 MPI tasks x no OpenMP threads

MPI task timing breakdown:
Section |  min time  |  avg time  |  max time  |%varavg| %total
---------------------------------------------------------------
Pair    | 3.2343     | 7.6533     | 11.264     | 122.6 |  2.86
Bond    | 0.0016052  | 0.0046692  | 0.013114   |   7.1 |  0.00
Kspace  | 63.096     | 66.712     | 71.13      |  41.6 | 24.97
Neigh   | 16.925     | 16.949     | 16.984     |   0.6 |  6.34
Comm    | 0.39614    | 0.44174    | 0.46935    |   4.5 |  0.17
Output  | 0.00021913 | 0.00054269 | 0.0013589  |   0.0 |  0.00
Modify  | 175.36     | 175.37     | 175.38     |   0.1 | 65.64
Other   |            | 0.02808    |            |       |  0.01

Nlocal:           1089 ave        1494 max         702 min
Histogram: 2 0 0 0 0 0 0 0 1 1
Nghost:           9053 ave       12006 max        5884 min
Histogram: 2 0 0 0 0 0 0 0 0 2
Neighs:         542692 ave      798273 max      221438 min
Histogram: 1 0 1 0 0 0 0 0 0 2

Total # of neighbors = 2170766
Ave neighs/atom = 498.3393
Ave special neighs/atom = 0.05785124
Neighbor list builds = 1944
Dangerous builds = 0

  unfix swp
  thermo_style custom step temp pe

next temp
jump SELF minimize_temp

  variable ftemp equal v_temp

  # Electrostatic relaxation
  fix swp swpFe atom/swap 1 1 ${rand} ${temp} ke no types 6 7
  fix swp swpFe atom/swap 1 1 2065900 ${temp} ke no types 6 7
  fix swp swpFe atom/swap 1 1 2065900 9261 ke no types 6 7
  thermo 100
  thermo_style custom step v_ftemp pe f_swp[1] f_swp[2]
  run ${nsteps}
  run 972
WARNING: No fixes with time integration, atoms won't move (../verlet.cpp:60)
PPPM initialization ...
  using 12-bit tables for long-range coulomb (../kspace.cpp:340)
  G vector (1/distance) = 0.29499882
  grid = 45 45 250
  stencil order = 5
  estimated absolute RMS force accuracy = 0.00038505019
  estimated relative force accuracy = 1.1595672e-06
  using double precision KISS FFT
  3d grid and FFT values/proc = 554040 378675
  generated 45 of 45 mixed pair_coeff terms from arithmetic mixing rule
Per MPI rank memory allocation (min/avg/max) = 24.36 | 35.12 | 63.74 Mbytes
Step v_ftemp PotEng f_swp[1] f_swp[2] 
   15552         9261   -792190.53            0            0 
   15600         9261   -792232.78           48           13 
   15700         9261   -792140.72          148           38 
   15800         9261   -792226.51          248           59 
   15900         9261   -792230.32          348           77 
   16000         9261    -792193.2          448          102 
   16100         9261   -792194.35          548          125 
   16200         9261   -792203.88          648          152 
   16300         9261   -792029.37          748          181 
   16400         9261   -792212.87          848          204 
   16500         9261   -792252.28          948          227 
   16524         9261   -792111.03          972          238 
Loop time of 265.858 on 4 procs for 972 steps with 4356 atoms

Performance: 0.158 ns/day, 151.954 hours/ns, 3.656 timesteps/s
94.1% CPU use with 4 MPI tasks x no OpenMP threads

MPI task timing breakdown:
Section |  min time  |  avg time  |  max time  |%varavg| %total
---------------------------------------------------------------
Pair    | 3.234      | 7.6463     | 11.22      | 122.4 |  2.88
Bond    | 0.0017906  | 0.0057324  | 0.012426   |   5.7 |  0.00
Kspace  | 62.973     | 66.549     | 70.962     |  41.5 | 25.03
Neigh   | 16.908     | 16.934     | 16.969     |   0.6 |  6.37
Comm    | 0.39438    | 0.43972    | 0.46832    |   4.6 |  0.17
Output  | 0.00023658 | 0.00055365 | 0.0013208  |   0.0 |  0.00
Modify  | 174.24     | 174.25     | 174.27     |   0.1 | 65.54
Other   |            | 0.02823    |            |       |  0.01

Nlocal:           1089 ave        1494 max         702 min
Histogram: 2 0 0 0 0 0 0 0 1 1
Nghost:           9053 ave       12006 max        5884 min
Histogram: 2 0 0 0 0 0 0 0 0 2
Neighs:         542692 ave      798273 max      221438 min
Histogram: 1 0 1 0 0 0 0 0 0 2

Total # of neighbors = 2170766
Ave neighs/atom = 498.3393
Ave special neighs/atom = 0.05785124
Neighbor list builds = 1944
Dangerous builds = 0

  unfix swp
  thermo_style custom step temp pe

next temp
jump SELF minimize_temp

  variable ftemp equal v_temp

  # Electrostatic relaxation
  fix swp swpFe atom/swap 1 1 ${rand} ${temp} ke no types 6 7
  fix swp swpFe atom/swap 1 1 5185835 ${temp} ke no types 6 7
  fix swp swpFe atom/swap 1 1 5185835 8334 ke no types 6 7
  thermo 100
  thermo_style custom step v_ftemp pe f_swp[1] f_swp[2]
  run ${nsteps}
  run 972
WARNING: No fixes with time integration, atoms won't move (../verlet.cpp:60)
PPPM initialization ...
  using 12-bit tables for long-range coulomb (../kspace.cpp:340)
  G vector (1/distance) = 0.29499882
  grid = 45 45 250
  stencil order = 5
  estimated absolute RMS force accuracy = 0.00038505019
  estimated relative force accuracy = 1.1595672e-06
  using double precision KISS FFT
  3d grid and FFT values/proc = 554040 378675
  generated 45 of 45 mixed pair_coeff terms from arithmetic mixing rule
Per MPI rank memory allocation (min/avg/max) = 24.36 | 35.12 | 63.74 Mbytes
Step v_ftemp PotEng f_swp[1] f_swp[2] 
   16524         8334   -792111.03            0            0 
   16600         8334   -792320.49           76           18 
   16700         8334   -792372.86          176           32 
   16800         8334   -792401.37          276           47 
   16900         8334   -792269.84          376           69 
   17000         8334   -792352.67          476           83 
   17100         8334   -792284.94          576          105 
   17200         8334   -792262.46          676          121 
   17300         8334   -792294.74          776          137 
   17400         8334   -792404.81          876          157 
   17496         8334   -792241.58          972          174 
Loop time of 269.533 on 4 procs for 972 steps with 4356 atoms

Performance: 0.156 ns/day, 154.054 hours/ns, 3.606 timesteps/s
94.4% CPU use with 4 MPI tasks x no OpenMP threads

MPI task timing breakdown:
Section |  min time  |  avg time  |  max time  |%varavg| %total
---------------------------------------------------------------
Pair    | 3.1519     | 7.5293     | 11.141     | 122.6 |  2.79
Bond    | 0.001711   | 0.0045516  | 0.01206    |   6.4 |  0.00
Kspace  | 64.6       | 68.214     | 72.59      |  40.8 | 25.31
Neigh   | 16.756     | 16.78      | 16.815     |   0.6 |  6.23
Comm    | 0.41335    | 0.45783    | 0.4863     |   4.5 |  0.17
Output  | 0.00018419 | 0.00052575 | 0.0013938  |   0.0 |  0.00
Modify  | 176.51     | 176.52     | 176.53     |   0.1 | 65.49
Other   |            | 0.02421    |            |       |  0.01

Nlocal:           1089 ave        1494 max         702 min
Histogram: 2 0 0 0 0 0 0 0 1 1
Nghost:           9053 ave       12006 max        5884 min
Histogram: 2 0 0 0 0 0 0 0 0 2
Neighs:         542692 ave      798273 max      221438 min
Histogram: 1 0 1 0 0 0 0 0 0 2

Total # of neighbors = 2170766
Ave neighs/atom = 498.3393
Ave special neighs/atom = 0.05785124
Neighbor list builds = 1944
Dangerous builds = 0

  unfix swp
  thermo_style custom step temp pe

next temp
jump SELF minimize_temp

  variable ftemp equal v_temp

  # Electrostatic relaxation
  fix swp swpFe atom/swap 1 1 ${rand} ${temp} ke no types 6 7
  fix swp swpFe atom/swap 1 1 3359353 ${temp} ke no types 6 7
  fix swp swpFe atom/swap 1 1 3359353 7500 ke no types 6 7
  thermo 100
  thermo_style custom step v_ftemp pe f_swp[1] f_swp[2]
  run ${nsteps}
  run 972
WARNING: No fixes with time integration, atoms won't move (../verlet.cpp:60)
PPPM initialization ...
  using 12-bit tables for long-range coulomb (../kspace.cpp:340)
  G vector (1/distance) = 0.29499882
  grid = 45 45 250
  stencil order = 5
  estimated absolute RMS force accuracy = 0.00038505019
  estimated relative force accuracy = 1.1595672e-06
  using double precision KISS FFT
  3d grid and FFT values/proc = 554040 378675
  generated 45 of 45 mixed pair_coeff terms from arithmetic mixing rule
Per MPI rank memory allocation (min/avg/max) = 24.36 | 35.12 | 63.74 Mbytes
Step v_ftemp PotEng f_swp[1] f_swp[2] 
   17496         7500   -792241.58            0            0 
   17500         7500   -792195.34            4            1 
   17600         7500   -792266.08          104           21 
   17700         7500   -792283.74          204           46 
   17800         7500   -792248.13          304           63 
   17900         7500   -792256.91          404           80 
   18000         7500   -792355.29          504           97 
   18100         7500   -792272.75          604          118 
   18200         7500   -792295.83          704          133 
   18300         7500   -792375.37          804          153 
   18400         7500   -792330.51          904          178 
   18468         7500   -792298.22          972          190 
Loop time of 270.55 on 4 procs for 972 steps with 4356 atoms

Performance: 0.155 ns/day, 154.636 hours/ns, 3.593 timesteps/s
94.2% CPU use with 4 MPI tasks x no OpenMP threads

MPI task timing breakdown:
Section |  min time  |  avg time  |  max time  |%varavg| %total
---------------------------------------------------------------
Pair    | 3.0877     | 7.4044     | 10.943     | 121.8 |  2.74
Bond    | 0.0013716  | 0.0039701  | 0.011097   |   6.5 |  0.00
Kspace  | 64.339     | 67.882     | 72.194     |  40.2 | 25.09
Neigh   | 16.898     | 16.924     | 16.963     |   0.6 |  6.26
Comm    | 0.44431    | 0.49929    | 0.53142    |   4.9 |  0.18
Output  | 0.00020537 | 0.00046307 | 0.0010924  |   0.0 |  0.00
Modify  | 177.8      | 177.81     | 177.83     |   0.1 | 65.72
Other   |            | 0.02463    |            |       |  0.01

Nlocal:           1089 ave        1494 max         702 min
Histogram: 2 0 0 0 0 0 0 0 1 1
Nghost:           9053 ave       12006 max        5884 min
Histogram: 2 0 0 0 0 0 0 0 0 2
Neighs:         542692 ave      798273 max      221438 min
Histogram: 1 0 1 0 0 0 0 0 0 2

Total # of neighbors = 2170766
Ave neighs/atom = 498.3393
Ave special neighs/atom = 0.05785124
Neighbor list builds = 1944
Dangerous builds = 0

  unfix swp
  thermo_style custom step temp pe

next temp
jump SELF minimize_temp

  variable ftemp equal v_temp

  # Electrostatic relaxation
  fix swp swpFe atom/swap 1 1 ${rand} ${temp} ke no types 6 7
  fix swp swpFe atom/swap 1 1 6806545 ${temp} ke no types 6 7
  fix swp swpFe atom/swap 1 1 6806545 6750 ke no types 6 7
  thermo 100
  thermo_style custom step v_ftemp pe f_swp[1] f_swp[2]
  run ${nsteps}
  run 972
WARNING: No fixes with time integration, atoms won't move (../verlet.cpp:60)
PPPM initialization ...
  using 12-bit tables for long-range coulomb (../kspace.cpp:340)
  G vector (1/distance) = 0.29499882
  grid = 45 45 250
  stencil order = 5
  estimated absolute RMS force accuracy = 0.00038505019
  estimated relative force accuracy = 1.1595672e-06
  using double precision KISS FFT
  3d grid and FFT values/proc = 554040 378675
  generated 45 of 45 mixed pair_coeff terms from arithmetic mixing rule
Per MPI rank memory allocation (min/avg/max) = 24.36 | 35.12 | 63.74 Mbytes
Step v_ftemp PotEng f_swp[1] f_swp[2] 
   18468         6750   -792298.22            0            0 
   18500         6750   -792311.01           32            5 
   18600         6750   -792260.82          132           32 
   18700         6750   -792298.87          232           53 
   18800         6750   -792348.25          332           69 
   18900         6750    -792310.5          432           84 
   19000         6750   -792271.91          532           99 
   19100         6750   -792409.19          632          124 
   19200         6750   -792251.34          732          142 
   19300         6750   -792304.75          832          162 
   19400         6750   -792305.91          932          175 
   19440         6750   -792275.86          972          181 
Loop time of 270.571 on 4 procs for 972 steps with 4356 atoms

Performance: 0.155 ns/day, 154.647 hours/ns, 3.592 timesteps/s
94.4% CPU use with 4 MPI tasks x no OpenMP threads

MPI task timing breakdown:
Section |  min time  |  avg time  |  max time  |%varavg| %total
---------------------------------------------------------------
Pair    | 3.1339     | 7.4325     | 10.979     | 121.5 |  2.75
Bond    | 0.0013742  | 0.003916   | 0.011355   |   6.9 |  0.00
Kspace  | 64.201     | 67.749     | 72.047     |  40.3 | 25.04
Neigh   | 16.912     | 16.937     | 16.976     |   0.6 |  6.26
Comm    | 0.43089    | 0.48424    | 0.51917    |   5.1 |  0.18
Output  | 0.00025353 | 0.00058743 | 0.0014214  |   0.0 |  0.00
Modify  | 177.92     | 177.94     | 177.95     |   0.1 | 65.76
Other   |            | 0.02582    |            |       |  0.01

Nlocal:           1089 ave        1494 max         702 min
Histogram: 2 0 0 0 0 0 0 0 1 1
Nghost:           9053 ave       12006 max        5884 min
Histogram: 2 0 0 0 0 0 0 0 0 2
Neighs:         542692 ave      798273 max      221438 min
Histogram: 1 0 1 0 0 0 0 0 0 2

Total # of neighbors = 2170766
Ave neighs/atom = 498.3393
Ave special neighs/atom = 0.05785124
Neighbor list builds = 1944
Dangerous builds = 0

  unfix swp
  thermo_style custom step temp pe

next temp
jump SELF minimize_temp

  variable ftemp equal v_temp

  # Electrostatic relaxation
  fix swp swpFe atom/swap 1 1 ${rand} ${temp} ke no types 6 7
  fix swp swpFe atom/swap 1 1 594805 ${temp} ke no types 6 7
  fix swp swpFe atom/swap 1 1 594805 6075 ke no types 6 7
  thermo 100
  thermo_style custom step v_ftemp pe f_swp[1] f_swp[2]
  run ${nsteps}
  run 972
WARNING: No fixes with time integration, atoms won't move (../verlet.cpp:60)
PPPM initialization ...
  using 12-bit tables for long-range coulomb (../kspace.cpp:340)
  G vector (1/distance) = 0.29499882
  grid = 45 45 250
  stencil order = 5
  estimated absolute RMS force accuracy = 0.00038505019
  estimated relative force accuracy = 1.1595672e-06
  using double precision KISS FFT
  3d grid and FFT values/proc = 554040 378675
  generated 45 of 45 mixed pair_coeff terms from arithmetic mixing rule
Per MPI rank memory allocation (min/avg/max) = 24.36 | 35.12 | 63.74 Mbytes
Step v_ftemp PotEng f_swp[1] f_swp[2] 
   19440         6075   -792275.86            0            0 
   19500         6075   -792316.06           60           15 
   19600         6075   -792279.87          160           30 
   19700         6075   -792301.17          260           48 
   19800         6075   -792346.01          360           64 
   19900         6075   -792355.19          460           79 
   20000         6075   -792331.77          560           94 
   20100         6075   -792320.35          660          105 
   20200         6075   -792282.78          760          128 
   20300         6075   -792308.48          860          144 
   20400         6075   -792291.19          960          158 
   20412         6075   -792292.65          972          159 
Loop time of 266.986 on 4 procs for 972 steps with 4356 atoms

Performance: 0.157 ns/day, 152.598 hours/ns, 3.641 timesteps/s
94.1% CPU use with 4 MPI tasks x no OpenMP threads

MPI task timing breakdown:
Section |  min time  |  avg time  |  max time  |%varavg| %total
---------------------------------------------------------------
Pair    | 3.1129     | 7.4067     | 10.964     | 121.2 |  2.77
Bond    | 0.0014121  | 0.0039935  | 0.011453   |   6.8 |  0.00
Kspace  | 62.746     | 66.304     | 70.597     |  40.5 | 24.83
Neigh   | 17.024     | 17.051     | 17.092     |   0.7 |  6.39
Comm    | 0.45418    | 0.50964    | 0.54272    |   5.1 |  0.19
Output  | 0.00024561 | 0.00053892 | 0.0012344  |   0.0 |  0.00
Modify  | 175.67     | 175.68     | 175.7      |   0.1 | 65.80
Other   |            | 0.02579    |            |       |  0.01

Nlocal:           1089 ave        1494 max         702 min
Histogram: 2 0 0 0 0 0 0 0 1 1
Nghost:           9053 ave       12006 max        5884 min
Histogram: 2 0 0 0 0 0 0 0 0 2
Neighs:         542692 ave      798273 max      221438 min
Histogram: 1 0 1 0 0 0 0 0 0 2

Total # of neighbors = 2170766
Ave neighs/atom = 498.3393
Ave special neighs/atom = 0.05785124
Neighbor list builds = 1944
Dangerous builds = 0

  unfix swp
  thermo_style custom step temp pe

next temp
jump SELF minimize_temp

  variable ftemp equal v_temp

  # Electrostatic relaxation
  fix swp swpFe atom/swap 1 1 ${rand} ${temp} ke no types 6 7
  fix swp swpFe atom/swap 1 1 3129163 ${temp} ke no types 6 7
  fix swp swpFe atom/swap 1 1 3129163 5467 ke no types 6 7
  thermo 100
  thermo_style custom step v_ftemp pe f_swp[1] f_swp[2]
  run ${nsteps}
  run 972
WARNING: No fixes with time integration, atoms won't move (../verlet.cpp:60)
PPPM initialization ...
  using 12-bit tables for long-range coulomb (../kspace.cpp:340)
  G vector (1/distance) = 0.29499882
  grid = 45 45 250
  stencil order = 5
  estimated absolute RMS force accuracy = 0.00038505019
  estimated relative force accuracy = 1.1595672e-06
  using double precision KISS FFT
  3d grid and FFT values/proc = 554040 378675
  generated 45 of 45 mixed pair_coeff terms from arithmetic mixing rule
Per MPI rank memory allocation (min/avg/max) = 24.36 | 35.12 | 63.74 Mbytes
Step v_ftemp PotEng f_swp[1] f_swp[2] 
   20412         5467   -792292.65            0            0 
   20500         5467   -792324.93           88           11 
   20600         5467   -792372.48          188           24 
   20700         5467   -792379.31          288           38 
   20800         5467   -792364.18          388           50 
   20900         5467   -792418.79          488           61 
   21000         5467   -792419.11          588           74 
   21100         5467   -792391.45          688           94 
   21200         5467   -792420.03          788          102 
   21300         5467   -792340.44          888          108 
   21384         5467   -792268.61          972          122 
Loop time of 266.245 on 4 procs for 972 steps with 4356 atoms

Performance: 0.158 ns/day, 152.175 hours/ns, 3.651 timesteps/s
94.1% CPU use with 4 MPI tasks x no OpenMP threads

MPI task timing breakdown:
Section |  min time  |  avg time  |  max time  |%varavg| %total
---------------------------------------------------------------
Pair    | 3.1871     | 7.5536     | 11.061     | 122.0 |  2.84
Bond    | 0.0014218  | 0.0045784  | 0.01283    |   7.1 |  0.00
Kspace  | 62.791     | 66.3       | 70.663     |  41.2 | 24.90
Neigh   | 16.77      | 16.794     | 16.83      |   0.6 |  6.31
Comm    | 0.40368    | 0.45148    | 0.47942    |   4.6 |  0.17
Output  | 0.00018594 | 0.00041421 | 0.00097037 |   0.0 |  0.00
Modify  | 175.1      | 175.11     | 175.13     |   0.1 | 65.77
Other   |            | 0.02703    |            |       |  0.01

Nlocal:           1089 ave        1494 max         702 min
Histogram: 2 0 0 0 0 0 0 0 1 1
Nghost:           9053 ave       12006 max        5884 min
Histogram: 2 0 0 0 0 0 0 0 0 2
Neighs:         542692 ave      798273 max      221438 min
Histogram: 1 0 1 0 0 0 0 0 0 2

Total # of neighbors = 2170766
Ave neighs/atom = 498.3393
Ave special neighs/atom = 0.05785124
Neighbor list builds = 1944
Dangerous builds = 0

  unfix swp
  thermo_style custom step temp pe

next temp
jump SELF minimize_temp

  variable ftemp equal v_temp

  # Electrostatic relaxation
  fix swp swpFe atom/swap 1 1 ${rand} ${temp} ke no types 6 7
  fix swp swpFe atom/swap 1 1 8397505 ${temp} ke no types 6 7
  fix swp swpFe atom/swap 1 1 8397505 4920 ke no types 6 7
  thermo 100
  thermo_style custom step v_ftemp pe f_swp[1] f_swp[2]
  run ${nsteps}
  run 972
WARNING: No fixes with time integration, atoms won't move (../verlet.cpp:60)
PPPM initialization ...
  using 12-bit tables for long-range coulomb (../kspace.cpp:340)
  G vector (1/distance) = 0.29499882
  grid = 45 45 250
  stencil order = 5
  estimated absolute RMS force accuracy = 0.00038505019
  estimated relative force accuracy = 1.1595672e-06
  using double precision KISS FFT
  3d grid and FFT values/proc = 554040 378675
  generated 45 of 45 mixed pair_coeff terms from arithmetic mixing rule
Per MPI rank memory allocation (min/avg/max) = 24.36 | 35.12 | 63.74 Mbytes
Step v_ftemp PotEng f_swp[1] f_swp[2] 
   21384         4920   -792268.61            0            0 
   21400         4920   -792287.64           16            3 
   21500         4920   -792456.41          116           17 
   21600         4920   -792452.86          216           27 
   21700         4920   -792381.62          316           34 
   21800         4920   -792313.74          416           47 
   21900         4920   -792370.95          516           58 
   22000         4920   -792364.91          616           73 
   22100         4920   -792334.51          716           84 
   22200         4920   -792342.54          816           96 
   22300         4920   -792404.02          916          106 
   22356         4920   -792403.62          972          114 
Loop time of 268.936 on 4 procs for 972 steps with 4356 atoms

Performance: 0.156 ns/day, 153.713 hours/ns, 3.614 timesteps/s
94.2% CPU use with 4 MPI tasks x no OpenMP threads

MPI task timing breakdown:
Section |  min time  |  avg time  |  max time  |%varavg| %total
---------------------------------------------------------------
Pair    | 3.1562     | 7.4242     | 10.931     | 120.4 |  2.76
Bond    | 0.0010752  | 0.00406    | 0.011425   |   6.7 |  0.00
Kspace  | 64.375     | 67.884     | 72.15      |  39.8 | 25.24
Neigh   | 16.633     | 16.658     | 16.696     |   0.6 |  6.19
Comm    | 0.42654    | 0.47433    | 0.50245    |   4.5 |  0.18
Output  | 0.00022975 | 0.00051031 | 0.0011944  |   0.0 |  0.00
Modify  | 176.46     | 176.47     | 176.48     |   0.1 | 65.62
Other   |            | 0.02468    |            |       |  0.01

Nlocal:           1089 ave        1494 max         702 min
Histogram: 2 0 0 0 0 0 0 0 1 1
Nghost:           9053 ave       12006 max        5884 min
Histogram: 2 0 0 0 0 0 0 0 0 2
Neighs:         542692 ave      798273 max      221438 min
Histogram: 1 0 1 0 0 0 0 0 0 2

Total # of neighbors = 2170766
Ave neighs/atom = 498.3393
Ave special neighs/atom = 0.05785124
Neighbor list builds = 1944
Dangerous builds = 0

  unfix swp
  thermo_style custom step temp pe

next temp
jump SELF minimize_temp

  variable ftemp equal v_temp

  # Electrostatic relaxation
  fix swp swpFe atom/swap 1 1 ${rand} ${temp} ke no types 6 7
  fix swp swpFe atom/swap 1 1 7746391 ${temp} ke no types 6 7
  fix swp swpFe atom/swap 1 1 7746391 4428 ke no types 6 7
  thermo 100
  thermo_style custom step v_ftemp pe f_swp[1] f_swp[2]
  run ${nsteps}
  run 972
WARNING: No fixes with time integration, atoms won't move (../verlet.cpp:60)
PPPM initialization ...
  using 12-bit tables for long-range coulomb (../kspace.cpp:340)
  G vector (1/distance) = 0.29499882
  grid = 45 45 250
  stencil order = 5
  estimated absolute RMS force accuracy = 0.00038505019
  estimated relative force accuracy = 1.1595672e-06
  using double precision KISS FFT
  3d grid and FFT values/proc = 554040 378675
  generated 45 of 45 mixed pair_coeff terms from arithmetic mixing rule
Per MPI rank memory allocation (min/avg/max) = 24.36 | 35.12 | 63.74 Mbytes
Step v_ftemp PotEng f_swp[1] f_swp[2] 
   22356         4428   -792403.62            0            0 
   22400         4428   -792364.34           44            6 
   22500         4428   -792410.33          144           13 
   22600         4428   -792405.42          244           25 
   22700         4428   -792441.94          344           35 
   22800         4428   -792439.52          444           41 
   22900         4428   -792337.94          544           50 
   23000         4428   -792347.43          644           68 
   23100         4428   -792395.05          744           77 
   23200         4428   -792425.65          844           86 
   23300         4428   -792417.57          944           93 
   23328         4428   -792399.65          972           94 
Loop time of 267.664 on 4 procs for 972 steps with 4356 atoms

Performance: 0.157 ns/day, 152.986 hours/ns, 3.631 timesteps/s
94.2% CPU use with 4 MPI tasks x no OpenMP threads

MPI task timing breakdown:
Section |  min time  |  avg time  |  max time  |%varavg| %total
---------------------------------------------------------------
Pair    | 3.1672     | 7.5095     | 11.039     | 121.6 |  2.81
Bond    | 0.0016961  | 0.0044536  | 0.012032   |   6.6 |  0.00
Kspace  | 63.549     | 67.082     | 71.421     |  40.7 | 25.06
Neigh   | 16.739     | 16.764     | 16.801     |   0.6 |  6.26
Comm    | 0.41222    | 0.4621     | 0.49198    |   4.7 |  0.17
Output  | 0.00023183 | 0.00056791 | 0.0013935  |   0.0 |  0.00
Modify  | 175.81     | 175.82     | 175.83     |   0.1 | 65.69
Other   |            | 0.02539    |            |       |  0.01

Nlocal:           1089 ave        1494 max         702 min
Histogram: 2 0 0 0 0 0 0 0 1 1
Nghost:           9053 ave       12006 max        5884 min
Histogram: 2 0 0 0 0 0 0 0 0 2
Neighs:         542692 ave      798273 max      221438 min
Histogram: 1 0 1 0 0 0 0 0 0 2

Total # of neighbors = 2170766
Ave neighs/atom = 498.3393
Ave special neighs/atom = 0.05785124
Neighbor list builds = 1944
Dangerous builds = 0

  unfix swp
  thermo_style custom step temp pe

next temp
jump SELF minimize_temp

  variable ftemp equal v_temp

  # Electrostatic relaxation
  fix swp swpFe atom/swap 1 1 ${rand} ${temp} ke no types 6 7
  fix swp swpFe atom/swap 1 1 6520128 ${temp} ke no types 6 7
  fix swp swpFe atom/swap 1 1 6520128 3985 ke no types 6 7
  thermo 100
  thermo_style custom step v_ftemp pe f_swp[1] f_swp[2]
  run ${nsteps}
  run 972
WARNING: No fixes with time integration, atoms won't move (../verlet.cpp:60)
PPPM initialization ...
  using 12-bit tables for long-range coulomb (../kspace.cpp:340)
  G vector (1/distance) = 0.29499882
  grid = 45 45 250
  stencil order = 5
  estimated absolute RMS force accuracy = 0.00038505019
  estimated relative force accuracy = 1.1595672e-06
  using double precision KISS FFT
  3d grid and FFT values/proc = 554040 378675
  generated 45 of 45 mixed pair_coeff terms from arithmetic mixing rule
Per MPI rank memory allocation (min/avg/max) = 24.36 | 35.12 | 63.74 Mbytes
Step v_ftemp PotEng f_swp[1] f_swp[2] 
   23328         3985   -792399.65            0            0 
   23400         3985   -792400.53           72            6 
   23500         3985   -792433.83          172           16 
   23600         3985   -792453.59          272           23 
   23700         3985   -792426.08          372           32 
   23800         3985   -792420.95          472           40 
   23900         3985   -792418.18          572           47 
   24000         3985   -792400.22          672           58 
   24100         3985   -792362.12          772           68 
   24200         3985   -792400.57          872           77 
   24300         3985   -792431.27          972           91 
Loop time of 266.007 on 4 procs for 972 steps with 4356 atoms

Performance: 0.158 ns/day, 152.039 hours/ns, 3.654 timesteps/s
94.2% CPU use with 4 MPI tasks x no OpenMP threads

MPI task timing breakdown:
Section |  min time  |  avg time  |  max time  |%varavg| %total
---------------------------------------------------------------
Pair    | 3.1833     | 7.5202     | 11.052     | 121.8 |  2.83
Bond    | 0.0016977  | 0.0051037  | 0.011714   |   5.6 |  0.00
Kspace  | 62.707     | 66.246     | 70.582     |  41.1 | 24.90
Neigh   | 16.897     | 16.921     | 16.957     |   0.6 |  6.36
Comm    | 0.42082    | 0.46843    | 0.49707    |   4.5 |  0.18
Output  | 0.00020331 | 0.00045207 | 0.0010438  |   0.0 |  0.00
Modify  | 174.81     | 174.82     | 174.83     |   0.1 | 65.72
Other   |            | 0.02659    |            |       |  0.01

Nlocal:           1089 ave        1494 max         702 min
Histogram: 2 0 0 0 0 0 0 0 1 1
Nghost:           9053 ave       12006 max        5884 min
Histogram: 2 0 0 0 0 0 0 0 0 2
Neighs:         542692 ave      798273 max      221438 min
Histogram: 1 0 1 0 0 0 0 0 0 2

Total # of neighbors = 2170766
Ave neighs/atom = 498.3393
Ave special neighs/atom = 0.05785124
Neighbor list builds = 1944
Dangerous builds = 0

  unfix swp
  thermo_style custom step temp pe

next temp
jump SELF minimize_temp

  variable ftemp equal v_temp

  # Electrostatic relaxation
  fix swp swpFe atom/swap 1 1 ${rand} ${temp} ke no types 6 7
  fix swp swpFe atom/swap 1 1 4419602 ${temp} ke no types 6 7
  fix swp swpFe atom/swap 1 1 4419602 3586 ke no types 6 7
  thermo 100
  thermo_style custom step v_ftemp pe f_swp[1] f_swp[2]
  run ${nsteps}
  run 972
WARNING: No fixes with time integration, atoms won't move (../verlet.cpp:60)
PPPM initialization ...
  using 12-bit tables for long-range coulomb (../kspace.cpp:340)
  G vector (1/distance) = 0.29499882
  grid = 45 45 250
  stencil order = 5
  estimated absolute RMS force accuracy = 0.00038505019
  estimated relative force accuracy = 1.1595672e-06
  using double precision KISS FFT
  3d grid and FFT values/proc = 554040 378675
  generated 45 of 45 mixed pair_coeff terms from arithmetic mixing rule
Per MPI rank memory allocation (min/avg/max) = 24.36 | 35.12 | 63.74 Mbytes
Step v_ftemp PotEng f_swp[1] f_swp[2] 
   24300         3586   -792431.27            0            0 
   24400         3586   -792408.34          100           12 
   24500         3586   -792394.99          200           19 
   24600         3586   -792382.89          300           28 
   24700         3586    -792426.8          400           35 
   24800         3586   -792444.13          500           40 
   24900         3586   -792416.84          600           52 
   25000         3586   -792363.29          700           56 
   25100         3586   -792452.74          800           65 
   25200         3586   -792429.96          900           73 
   25272         3586   -792397.02          972           77 
Loop time of 268.523 on 4 procs for 972 steps with 4356 atoms

Performance: 0.156 ns/day, 153.477 hours/ns, 3.620 timesteps/s
94.4% CPU use with 4 MPI tasks x no OpenMP threads

MPI task timing breakdown:
Section |  min time  |  avg time  |  max time  |%varavg| %total
---------------------------------------------------------------
Pair    | 3.1182     | 7.3888     | 10.923     | 121.1 |  2.75
Bond    | 0.001283   | 0.0039596  | 0.01123    |   6.7 |  0.00
Kspace  | 63.131     | 66.667     | 70.937     |  40.3 | 24.83
Neigh   | 16.855     | 16.882     | 16.923     |   0.7 |  6.29
Comm    | 0.45573    | 0.50856    | 0.54129    |   4.8 |  0.19
Output  | 0.00020039 | 0.00046023 | 0.0011062  |   0.0 |  0.00
Modify  | 177.04     | 177.05     | 177.06     |   0.1 | 65.93
Other   |            | 0.025      |            |       |  0.01

Nlocal:           1089 ave        1494 max         702 min
Histogram: 2 0 0 0 0 0 0 0 1 1
Nghost:           9053 ave       12006 max        5884 min
Histogram: 2 0 0 0 0 0 0 0 0 2
Neighs:         542692 ave      798273 max      221438 min
Histogram: 1 0 1 0 0 0 0 0 0 2

Total # of neighbors = 2170766
Ave neighs/atom = 498.3393
Ave special neighs/atom = 0.05785124
Neighbor list builds = 1944
Dangerous builds = 0

  unfix swp
  thermo_style custom step temp pe

next temp
jump SELF minimize_temp

  variable ftemp equal v_temp

  # Electrostatic relaxation
  fix swp swpFe atom/swap 1 1 ${rand} ${temp} ke no types 6 7
  fix swp swpFe atom/swap 1 1 2199081 ${temp} ke no types 6 7
  fix swp swpFe atom/swap 1 1 2199081 3227 ke no types 6 7
  thermo 100
  thermo_style custom step v_ftemp pe f_swp[1] f_swp[2]
  run ${nsteps}
  run 972
WARNING: No fixes with time integration, atoms won't move (../verlet.cpp:60)
PPPM initialization ...
  using 12-bit tables for long-range coulomb (../kspace.cpp:340)
  G vector (1/distance) = 0.29499882
  grid = 45 45 250
  stencil order = 5
  estimated absolute RMS force accuracy = 0.00038505019
  estimated relative force accuracy = 1.1595672e-06
  using double precision KISS FFT
  3d grid and FFT values/proc = 554040 378675
  generated 45 of 45 mixed pair_coeff terms from arithmetic mixing rule
Per MPI rank memory allocation (min/avg/max) = 24.36 | 35.12 | 63.74 Mbytes
Step v_ftemp PotEng f_swp[1] f_swp[2] 
   25272         3227   -792397.02            0            0 
   25300         3227   -792397.02           28            0 
   25400         3227   -792448.09          128            8 
   25500         3227   -792465.28          228           14 
   25600         3227   -792435.98          328           23 
   25700         3227    -792417.9          428           28 
   25800         3227   -792442.86          528           35 
   25900         3227   -792460.03          628           44 
   26000         3227   -792455.42          728           46 
   26100         3227   -792465.51          828           48 
   26200         3227   -792479.63          928           54 
   26244         3227    -792488.9          972           55 
Loop time of 269.536 on 4 procs for 972 steps with 4356 atoms

Performance: 0.156 ns/day, 154.056 hours/ns, 3.606 timesteps/s
94.3% CPU use with 4 MPI tasks x no OpenMP threads

MPI task timing breakdown:
Section |  min time  |  avg time  |  max time  |%varavg| %total
---------------------------------------------------------------
Pair    | 3.1372     | 7.4924     | 11.103     | 122.3 |  2.78
Bond    | 0.0017054  | 0.004255   | 0.011395   |   6.3 |  0.00
Kspace  | 64.441     | 68.054     | 72.408     |  40.6 | 25.25
Neigh   | 16.795     | 16.819     | 16.854     |   0.6 |  6.24
Comm    | 0.40513    | 0.44956    | 0.47782    |   4.5 |  0.17
Output  | 0.00023057 | 0.00051547 | 0.0011845  |   0.0 |  0.00
Modify  | 176.68     | 176.69     | 176.7      |   0.1 | 65.55
Other   |            | 0.02311    |            |       |  0.01

Nlocal:           1089 ave        1494 max         702 min
Histogram: 2 0 0 0 0 0 0 0 1 1
Nghost:           9053 ave       12006 max        5884 min
Histogram: 2 0 0 0 0 0 0 0 0 2
Neighs:         542692 ave      798273 max      221438 min
Histogram: 1 0 1 0 0 0 0 0 0 2

Total # of neighbors = 2170766
Ave neighs/atom = 498.3393
Ave special neighs/atom = 0.05785124
Neighbor list builds = 1944
Dangerous builds = 0

  unfix swp
  thermo_style custom step temp pe

next temp
jump SELF minimize_temp

  variable ftemp equal v_temp

  # Electrostatic relaxation
  fix swp swpFe atom/swap 1 1 ${rand} ${temp} ke no types 6 7
  fix swp swpFe atom/swap 1 1 6067438 ${temp} ke no types 6 7
  fix swp swpFe atom/swap 1 1 6067438 2904 ke no types 6 7
  thermo 100
  thermo_style custom step v_ftemp pe f_swp[1] f_swp[2]
  run ${nsteps}
  run 972
WARNING: No fixes with time integration, atoms won't move (../verlet.cpp:60)
PPPM initialization ...
  using 12-bit tables for long-range coulomb (../kspace.cpp:340)
  G vector (1/distance) = 0.29499882
  grid = 45 45 250
  stencil order = 5
  estimated absolute RMS force accuracy = 0.00038505019
  estimated relative force accuracy = 1.1595672e-06
  using double precision KISS FFT
  3d grid and FFT values/proc = 554040 378675
  generated 45 of 45 mixed pair_coeff terms from arithmetic mixing rule
Per MPI rank memory allocation (min/avg/max) = 24.36 | 35.12 | 63.74 Mbytes
Step v_ftemp PotEng f_swp[1] f_swp[2] 
   26244         2904    -792488.9            0            0 
   26300         2904   -792494.08           56            1 
   26400         2904    -792496.3          156            2 
   26500         2904   -792493.13          256            3 
   26600         2904    -792484.2          356            5 
   26700         2904   -792473.12          456            7 
   26800         2904   -792487.25          556           11 
   26900         2904    -792474.2          656           19 
   27000         2904   -792473.83          756           21 
   27100         2904   -792470.95          856           26 
   27200         2904   -792475.21          956           29 
   27216         2904   -792454.86          972           31 
Loop time of 266.906 on 4 procs for 972 steps with 4356 atoms

Performance: 0.157 ns/day, 152.552 hours/ns, 3.642 timesteps/s
94.1% CPU use with 4 MPI tasks x no OpenMP threads

MPI task timing breakdown:
Section |  min time  |  avg time  |  max time  |%varavg| %total
---------------------------------------------------------------
Pair    | 3.1377     | 7.4476     | 10.946     | 121.2 |  2.79
Bond    | 0.0013226  | 0.0041988  | 0.011544   |   6.6 |  0.00
Kspace  | 62.882     | 66.386     | 70.702     |  40.7 | 24.87
Neigh   | 16.863     | 16.891     | 16.931     |   0.7 |  6.33
Comm    | 0.45375    | 0.5138     | 0.55114    |   5.6 |  0.19
Output  | 0.00023136 | 0.0006085  | 0.0015796  |   0.0 |  0.00
Modify  | 175.62     | 175.64     | 175.66     |   0.1 | 65.80
Other   |            | 0.02666    |            |       |  0.01

Nlocal:           1089 ave        1494 max         702 min
Histogram: 2 0 0 0 0 0 0 0 1 1
Nghost:           9053 ave       12006 max        5884 min
Histogram: 2 0 0 0 0 0 0 0 0 2
Neighs:         542692 ave      798273 max      221438 min
Histogram: 1 0 1 0 0 0 0 0 0 2

Total # of neighbors = 2170766
Ave neighs/atom = 498.3393
Ave special neighs/atom = 0.05785124
Neighbor list builds = 1944
Dangerous builds = 0

  unfix swp
  thermo_style custom step temp pe

next temp
jump SELF minimize_temp

  variable ftemp equal v_temp

  # Electrostatic relaxation
  fix swp swpFe atom/swap 1 1 ${rand} ${temp} ke no types 6 7
  fix swp swpFe atom/swap 1 1 3316115 ${temp} ke no types 6 7
  fix swp swpFe atom/swap 1 1 3316115 2613 ke no types 6 7
  thermo 100
  thermo_style custom step v_ftemp pe f_swp[1] f_swp[2]
  run ${nsteps}
  run 972
WARNING: No fixes with time integration, atoms won't move (../verlet.cpp:60)
PPPM initialization ...
  using 12-bit tables for long-range coulomb (../kspace.cpp:340)
  G vector (1/distance) = 0.29499882
  grid = 45 45 250
  stencil order = 5
  estimated absolute RMS force accuracy = 0.00038505019
  estimated relative force accuracy = 1.1595672e-06
  using double precision KISS FFT
  3d grid and FFT values/proc = 554040 378675
  generated 45 of 45 mixed pair_coeff terms from arithmetic mixing rule
Per MPI rank memory allocation (min/avg/max) = 24.36 | 35.12 | 63.74 Mbytes
Step v_ftemp PotEng f_swp[1] f_swp[2] 
   27216         2613   -792454.86            0            0 
   27300         2613   -792453.48           84            3 
   27400         2613    -792448.3          184            7 
   27500         2613   -792452.65          284           14 
   27600         2613   -792463.99          384           17 
   27700         2613    -792475.1          484           21 
   27800         2613    -792481.7          584           23 
   27900         2613   -792505.11          684           26 
   28000         2613   -792507.55          784           30 
   28100         2613   -792516.92          884           32 
   28188         2613   -792459.56          972           36 
Loop time of 262.871 on 4 procs for 972 steps with 4356 atoms

Performance: 0.160 ns/day, 150.246 hours/ns, 3.698 timesteps/s
94.3% CPU use with 4 MPI tasks x no OpenMP threads

MPI task timing breakdown:
Section |  min time  |  avg time  |  max time  |%varavg| %total
---------------------------------------------------------------
Pair    | 3.2502     | 7.6257     | 11.189     | 121.5 |  2.90
Bond    | 0.0016068  | 0.0049706  | 0.01389    |   7.3 |  0.00
Kspace  | 61.09      | 64.654     | 69.032     |  41.8 | 24.60
Neigh   | 16.976     | 17         | 17.036     |   0.6 |  6.47
Comm    | 0.40592    | 0.45074    | 0.47652    |   4.3 |  0.17
Output  | 0.00021002 | 0.00053137 | 0.0013542  |   0.0 |  0.00
Modify  | 173.09     | 173.1      | 173.11     |   0.1 | 65.85
Other   |            | 0.03263    |            |       |  0.01

Nlocal:           1089 ave        1494 max         702 min
Histogram: 2 0 0 0 0 0 0 0 1 1
Nghost:           9053 ave       12006 max        5884 min
Histogram: 2 0 0 0 0 0 0 0 0 2
Neighs:         542692 ave      798273 max      221438 min
Histogram: 1 0 1 0 0 0 0 0 0 2

Total # of neighbors = 2170766
Ave neighs/atom = 498.3393
Ave special neighs/atom = 0.05785124
Neighbor list builds = 1944
Dangerous builds = 0

  unfix swp
  thermo_style custom step temp pe

next temp
jump SELF minimize_temp

  variable ftemp equal v_temp

  # Electrostatic relaxation
  fix swp swpFe atom/swap 1 1 ${rand} ${temp} ke no types 6 7
  fix swp swpFe atom/swap 1 1 9343451 ${temp} ke no types 6 7
  fix swp swpFe atom/swap 1 1 9343451 2351 ke no types 6 7
  thermo 100
  thermo_style custom step v_ftemp pe f_swp[1] f_swp[2]
  run ${nsteps}
  run 972
WARNING: No fixes with time integration, atoms won't move (../verlet.cpp:60)
PPPM initialization ...
  using 12-bit tables for long-range coulomb (../kspace.cpp:340)
  G vector (1/distance) = 0.29499882
  grid = 45 45 250
  stencil order = 5
  estimated absolute RMS force accuracy = 0.00038505019
  estimated relative force accuracy = 1.1595672e-06
  using double precision KISS FFT
  3d grid and FFT values/proc = 554040 378675
  generated 45 of 45 mixed pair_coeff terms from arithmetic mixing rule
Per MPI rank memory allocation (min/avg/max) = 24.36 | 35.12 | 63.74 Mbytes
Step v_ftemp PotEng f_swp[1] f_swp[2] 
   28188         2351   -792459.56            0            0 
   28200         2351   -792459.56           12            0 
   28300         2351   -792474.09          112            1 
   28400         2351   -792483.58          212            2 
   28500         2351   -792450.03          312            9 
   28600         2351      -792445          412           11 
   28700         2351   -792436.59          512           14 
   28800         2351   -792438.34          612           15 
   28900         2351    -792435.7          712           18 
   29000         2351   -792444.75          812           21 
   29100         2351   -792460.89          912           25 
   29160         2351   -792441.81          972           26 
Loop time of 261.826 on 4 procs for 972 steps with 4356 atoms

Performance: 0.160 ns/day, 149.649 hours/ns, 3.712 timesteps/s
94.3% CPU use with 4 MPI tasks x no OpenMP threads

MPI task timing breakdown:
Section |  min time  |  avg time  |  max time  |%varavg| %total
---------------------------------------------------------------
Pair    | 3.1487     | 7.4775     | 10.928     | 120.6 |  2.86
Bond    | 0.0011315  | 0.0042576  | 0.012122   |   7.0 |  0.00
Kspace  | 61.061     | 64.513     | 68.842     |  41.1 | 24.64
Neigh   | 16.882     | 16.909     | 16.95      |   0.7 |  6.46
Comm    | 0.46146    | 0.51508    | 0.54696    |   4.9 |  0.20
Output  | 0.00023562 | 0.00052435 | 0.0012312  |   0.0 |  0.00
Modify  | 172.37     | 172.38     | 172.39     |   0.1 | 65.84
Other   |            | 0.02746    |            |       |  0.01

Nlocal:           1089 ave        1494 max         702 min
Histogram: 2 0 0 0 0 0 0 0 1 1
Nghost:           9053 ave       12006 max        5884 min
Histogram: 2 0 0 0 0 0 0 0 0 2
Neighs:         542692 ave      798273 max      221438 min
Histogram: 1 0 1 0 0 0 0 0 0 2

Total # of neighbors = 2170766
Ave neighs/atom = 498.3393
Ave special neighs/atom = 0.05785124
Neighbor list builds = 1944
Dangerous builds = 0

  unfix swp
  thermo_style custom step temp pe

next temp
jump SELF minimize_temp

  variable ftemp equal v_temp

  # Electrostatic relaxation
  fix swp swpFe atom/swap 1 1 ${rand} ${temp} ke no types 6 7
  fix swp swpFe atom/swap 1 1 9813187 ${temp} ke no types 6 7
  fix swp swpFe atom/swap 1 1 9813187 2115 ke no types 6 7
  thermo 100
  thermo_style custom step v_ftemp pe f_swp[1] f_swp[2]
  run ${nsteps}
  run 972
WARNING: No fixes with time integration, atoms won't move (../verlet.cpp:60)
PPPM initialization ...
  using 12-bit tables for long-range coulomb (../kspace.cpp:340)
  G vector (1/distance) = 0.29499882
  grid = 45 45 250
  stencil order = 5
  estimated absolute RMS force accuracy = 0.00038505019
  estimated relative force accuracy = 1.1595672e-06
  using double precision KISS FFT
  3d grid and FFT values/proc = 554040 378675
  generated 45 of 45 mixed pair_coeff terms from arithmetic mixing rule
Per MPI rank memory allocation (min/avg/max) = 24.36 | 35.12 | 63.74 Mbytes
Step v_ftemp PotEng f_swp[1] f_swp[2] 
   29160         2115   -792441.81            0            0 
   29200         2115   -792441.89           40            2 
   29300         2115   -792455.13          140            3 
   29400         2115   -792433.53          240           10 
   29500         2115   -792475.79          340           18 
   29600         2115   -792483.74          440           21 
   29700         2115   -792495.84          540           26 
   29800         2115   -792494.81          640           30 
   29900         2115   -792514.12          740           34 
   30000         2115   -792514.12          840           34 
   30100         2115   -792514.12          940           34 
   30132         2115   -792518.52          972           35 
Loop time of 266.903 on 4 procs for 972 steps with 4356 atoms

Performance: 0.157 ns/day, 152.551 hours/ns, 3.642 timesteps/s
94.4% CPU use with 4 MPI tasks x no OpenMP threads

MPI task timing breakdown:
Section |  min time  |  avg time  |  max time  |%varavg| %total
---------------------------------------------------------------
Pair    | 3.1154     | 7.4367     | 11.022     | 122.0 |  2.79
Bond    | 0.0015759  | 0.0040894  | 0.011424   |   6.6 |  0.00
Kspace  | 62.809     | 66.397     | 70.717     |  40.8 | 24.88
Neigh   | 16.925     | 16.951     | 16.992     |   0.6 |  6.35
Comm    | 0.45257    | 0.50585    | 0.53631    |   4.8 |  0.19
Output  | 0.00022345 | 0.00055827 | 0.0014184  |   0.0 |  0.00
Modify  | 175.57     | 175.58     | 175.6      |   0.1 | 65.79
Other   |            | 0.02546    |            |       |  0.01

Nlocal:           1089 ave        1494 max         702 min
Histogram: 2 0 0 0 0 0 0 0 1 1
Nghost:           9053 ave       12006 max        5884 min
Histogram: 2 0 0 0 0 0 0 0 0 2
Neighs:         542692 ave      798273 max      221438 min
Histogram: 1 0 1 0 0 0 0 0 0 2

Total # of neighbors = 2170766
Ave neighs/atom = 498.3393
Ave special neighs/atom = 0.05785124
Neighbor list builds = 1944
Dangerous builds = 0

  unfix swp
  thermo_style custom step temp pe

next temp
jump SELF minimize_temp

  variable ftemp equal v_temp

  # Electrostatic relaxation
  fix swp swpFe atom/swap 1 1 ${rand} ${temp} ke no types 6 7
  fix swp swpFe atom/swap 1 1 3669492 ${temp} ke no types 6 7
  fix swp swpFe atom/swap 1 1 3669492 1903 ke no types 6 7
  thermo 100
  thermo_style custom step v_ftemp pe f_swp[1] f_swp[2]
  run ${nsteps}
  run 972
WARNING: No fixes with time integration, atoms won't move (../verlet.cpp:60)
PPPM initialization ...
  using 12-bit tables for long-range coulomb (../kspace.cpp:340)
  G vector (1/distance) = 0.29499882
  grid = 45 45 250
  stencil order = 5
  estimated absolute RMS force accuracy = 0.00038505019
  estimated relative force accuracy = 1.1595672e-06
  using double precision KISS FFT
  3d grid and FFT values/proc = 554040 378675
  generated 45 of 45 mixed pair_coeff terms from arithmetic mixing rule
Per MPI rank memory allocation (min/avg/max) = 24.36 | 35.12 | 63.74 Mbytes
Step v_ftemp PotEng f_swp[1] f_swp[2] 
   30132         1903   -792518.52            0            0 
   30200         1903   -792518.52           68            0 
   30300         1903   -792518.52          168            0 
   30400         1903   -792518.52          268            0 
   30500         1903   -792518.52          368            0 
   30600         1903   -792515.93          468            2 
   30700         1903   -792519.08          568            4 
   30800         1903   -792519.08          668            4 
   30900         1903   -792519.08          768            4 
   31000         1903   -792503.97          868            5 
   31100         1903   -792480.09          968           10 
   31104         1903   -792480.09          972           10 
Loop time of 265.915 on 4 procs for 972 steps with 4356 atoms

Performance: 0.158 ns/day, 151.986 hours/ns, 3.655 timesteps/s
94.2% CPU use with 4 MPI tasks x no OpenMP threads

MPI task timing breakdown:
Section |  min time  |  avg time  |  max time  |%varavg| %total
---------------------------------------------------------------
Pair    | 3.1238     | 7.4588     | 11.041     | 121.7 |  2.80
Bond    | 0.0015933  | 0.0041541  | 0.011172   |   6.3 |  0.00
Kspace  | 62.989     | 66.574     | 70.908     |  40.8 | 25.04
Neigh   | 16.969     | 16.995     | 17.032     |   0.6 |  6.39
Comm    | 0.44098    | 0.49155    | 0.52292    |   4.8 |  0.18
Output  | 0.00025223 | 0.00069    | 0.0018301  |   0.0 |  0.00
Modify  | 174.35     | 174.37     | 174.38     |   0.1 | 65.57
Other   |            | 0.02521    |            |       |  0.01

Nlocal:           1089 ave        1494 max         702 min
Histogram: 2 0 0 0 0 0 0 0 1 1
Nghost:           9053 ave       12006 max        5884 min
Histogram: 2 0 0 0 0 0 0 0 0 2
Neighs:         542692 ave      798273 max      221438 min
Histogram: 1 0 1 0 0 0 0 0 0 2

Total # of neighbors = 2170766
Ave neighs/atom = 498.3393
Ave special neighs/atom = 0.05785124
Neighbor list builds = 1944
Dangerous builds = 0

  unfix swp
  thermo_style custom step temp pe

next temp
jump SELF minimize_temp

  variable ftemp equal v_temp

  # Electrostatic relaxation
  fix swp swpFe atom/swap 1 1 ${rand} ${temp} ke no types 6 7
  fix swp swpFe atom/swap 1 1 4337234 ${temp} ke no types 6 7
  fix swp swpFe atom/swap 1 1 4337234 1712 ke no types 6 7
  thermo 100
  thermo_style custom step v_ftemp pe f_swp[1] f_swp[2]
  run ${nsteps}
  run 972
WARNING: No fixes with time integration, atoms won't move (../verlet.cpp:60)
PPPM initialization ...
  using 12-bit tables for long-range coulomb (../kspace.cpp:340)
  G vector (1/distance) = 0.29499882
  grid = 45 45 250
  stencil order = 5
  estimated absolute RMS force accuracy = 0.00038505019
  estimated relative force accuracy = 1.1595672e-06
  using double precision KISS FFT
  3d grid and FFT values/proc = 554040 378675
  generated 45 of 45 mixed pair_coeff terms from arithmetic mixing rule
Per MPI rank memory allocation (min/avg/max) = 24.36 | 35.12 | 63.74 Mbytes
Step v_ftemp PotEng f_swp[1] f_swp[2] 
   31104         1712   -792480.09            0            0 
   31200         1712   -792480.52           96            1 
   31300         1712   -792481.81          196            4 
   31400         1712   -792472.55          296            6 
   31500         1712   -792472.55          396            6 
   31600         1712   -792482.62          496            7 
   31700         1712   -792482.62          596            7 
   31800         1712   -792494.55          696            8 
   31900         1712      -792494          796            9 
   32000         1712      -792494          896            9 
   32076         1712    -792492.4          972           10 
Loop time of 265.483 on 4 procs for 972 steps with 4356 atoms

Performance: 0.158 ns/day, 151.739 hours/ns, 3.661 timesteps/s
94.2% CPU use with 4 MPI tasks x no OpenMP threads

MPI task timing breakdown:
Section |  min time  |  avg time  |  max time  |%varavg| %total
---------------------------------------------------------------
Pair    | 3.1406     | 7.4756     | 11.018     | 121.8 |  2.82
Bond    | 0.0014975  | 0.0042068  | 0.011511   |   6.5 |  0.00
Kspace  | 62.683     | 66.228     | 70.562     |  40.9 | 24.95
Neigh   | 16.959     | 16.985     | 17.023     |   0.6 |  6.40
Comm    | 0.45776    | 0.51617    | 0.54844    |   5.2 |  0.19
Output  | 0.00020269 | 0.00053516 | 0.0013997  |   0.0 |  0.00
Modify  | 174.24     | 174.25     | 174.26     |   0.1 | 65.63
Other   |            | 0.02795    |            |       |  0.01

Nlocal:           1089 ave        1494 max         702 min
Histogram: 2 0 0 0 0 0 0 0 1 1
Nghost:           9053 ave       12006 max        5884 min
Histogram: 2 0 0 0 0 0 0 0 0 2
Neighs:         542692 ave      798273 max      221438 min
Histogram: 1 0 1 0 0 0 0 0 0 2

Total # of neighbors = 2170766
Ave neighs/atom = 498.3393
Ave special neighs/atom = 0.05785124
Neighbor list builds = 1944
Dangerous builds = 0

  unfix swp
  thermo_style custom step temp pe

next temp
jump SELF minimize_temp

  variable ftemp equal v_temp

  # Electrostatic relaxation
  fix swp swpFe atom/swap 1 1 ${rand} ${temp} ke no types 6 7
  fix swp swpFe atom/swap 1 1 8737738 ${temp} ke no types 6 7
  fix swp swpFe atom/swap 1 1 8737738 1540 ke no types 6 7
  thermo 100
  thermo_style custom step v_ftemp pe f_swp[1] f_swp[2]
  run ${nsteps}
  run 972
WARNING: No fixes with time integration, atoms won't move (../verlet.cpp:60)
PPPM initialization ...
  using 12-bit tables for long-range coulomb (../kspace.cpp:340)
  G vector (1/distance) = 0.29499882
  grid = 45 45 250
  stencil order = 5
  estimated absolute RMS force accuracy = 0.00038505019
  estimated relative force accuracy = 1.1595672e-06
  using double precision KISS FFT
  3d grid and FFT values/proc = 554040 378675
  generated 45 of 45 mixed pair_coeff terms from arithmetic mixing rule
Per MPI rank memory allocation (min/avg/max) = 24.36 | 35.12 | 63.74 Mbytes
Step v_ftemp PotEng f_swp[1] f_swp[2] 
   32076         1540    -792492.4            0            0 
   32100         1540    -792492.4           24            0 
   32200         1540   -792499.11          124            2 
   32300         1540    -792491.6          224            4 
   32400         1540   -792487.51          324            6 
   32500         1540   -792482.26          424            9 
   32600         1540   -792493.08          524           12 
   32700         1540   -792495.01          624           14 
   32800         1540   -792495.01          724           14 
   32900         1540   -792497.61          824           16 
   33000         1540   -792494.16          924           17 
   33048         1540   -792494.16          972           17 
Loop time of 266.855 on 4 procs for 972 steps with 4356 atoms

Performance: 0.157 ns/day, 152.524 hours/ns, 3.642 timesteps/s
94.3% CPU use with 4 MPI tasks x no OpenMP threads

MPI task timing breakdown:
Section |  min time  |  avg time  |  max time  |%varavg| %total
---------------------------------------------------------------
Pair    | 3.1688     | 7.5305     | 11.057     | 122.1 |  2.82
Bond    | 0.0014766  | 0.0044268  | 0.011979   |   6.6 |  0.00
Kspace  | 62.995     | 66.523     | 70.883     |  41.1 | 24.93
Neigh   | 16.872     | 16.901     | 16.941     |   0.7 |  6.33
Comm    | 0.42013    | 0.47168    | 0.50414    |   5.0 |  0.18
Output  | 0.0002316  | 0.00059354 | 0.0015199  |   0.0 |  0.00
Modify  | 175.39     | 175.4      | 175.41     |   0.1 | 65.73
Other   |            | 0.02537    |            |       |  0.01

Nlocal:           1089 ave        1494 max         702 min
Histogram: 2 0 0 0 0 0 0 0 1 1
Nghost:           9053 ave       12006 max        5884 min
Histogram: 2 0 0 0 0 0 0 0 0 2
Neighs:         542692 ave      798273 max      221438 min
Histogram: 1 0 1 0 0 0 0 0 0 2

Total # of neighbors = 2170766
Ave neighs/atom = 498.3393
Ave special neighs/atom = 0.05785124
Neighbor list builds = 1944
Dangerous builds = 0

  unfix swp
  thermo_style custom step temp pe

next temp
jump SELF minimize_temp

  variable ftemp equal v_temp

  # Electrostatic relaxation
  fix swp swpFe atom/swap 1 1 ${rand} ${temp} ke no types 6 7
  fix swp swpFe atom/swap 1 1 9296387 ${temp} ke no types 6 7
  fix swp swpFe atom/swap 1 1 9296387 1386 ke no types 6 7
  thermo 100
  thermo_style custom step v_ftemp pe f_swp[1] f_swp[2]
  run ${nsteps}
  run 972
WARNING: No fixes with time integration, atoms won't move (../verlet.cpp:60)
PPPM initialization ...
  using 12-bit tables for long-range coulomb (../kspace.cpp:340)
  G vector (1/distance) = 0.29499882
  grid = 45 45 250
  stencil order = 5
  estimated absolute RMS force accuracy = 0.00038505019
  estimated relative force accuracy = 1.1595672e-06
  using double precision KISS FFT
  3d grid and FFT values/proc = 554040 378675
  generated 45 of 45 mixed pair_coeff terms from arithmetic mixing rule
Per MPI rank memory allocation (min/avg/max) = 24.36 | 35.12 | 63.74 Mbytes
Step v_ftemp PotEng f_swp[1] f_swp[2] 
   33048         1386   -792494.16            0            0 
   33100         1386   -792510.67           52            2 
   33200         1386   -792510.67          152            2 
   33300         1386   -792510.67          252            2 
   33400         1386   -792510.67          352            2 
   33500         1386   -792509.44          452            4 
   33600         1386   -792509.44          552            4 
   33700         1386   -792509.44          652            4 
   33800         1386   -792509.44          752            4 
   33900         1386   -792509.44          852            4 
   34000         1386   -792518.77          952            6 
   34020         1386   -792518.77          972            6 
Loop time of 268.83 on 4 procs for 972 steps with 4356 atoms

Performance: 0.156 ns/day, 153.652 hours/ns, 3.616 timesteps/s
94.0% CPU use with 4 MPI tasks x no OpenMP threads

MPI task timing breakdown:
Section |  min time  |  avg time  |  max time  |%varavg| %total
---------------------------------------------------------------
Pair    | 3.1399     | 7.4829     | 11.019     | 121.8 |  2.78
Bond    | 0.001606   | 0.0043588  | 0.01205    |   6.7 |  0.00
Kspace  | 63.527     | 67.068     | 71.406     |  40.7 | 24.95
Neigh   | 16.788     | 16.815     | 16.854     |   0.6 |  6.25
Comm    | 0.45026    | 0.50609    | 0.53924    |   5.0 |  0.19
Output  | 0.00029049 | 0.00062155 | 0.0014385  |   0.0 |  0.00
Modify  | 176.92     | 176.93     | 176.94     |   0.1 | 65.81
Other   |            | 0.02541    |            |       |  0.01

Nlocal:           1089 ave        1494 max         702 min
Histogram: 2 0 0 0 0 0 0 0 1 1
Nghost:           9053 ave       12006 max        5884 min
Histogram: 2 0 0 0 0 0 0 0 0 2
Neighs:         542692 ave      798273 max      221438 min
Histogram: 1 0 1 0 0 0 0 0 0 2

Total # of neighbors = 2170766
Ave neighs/atom = 498.3393
Ave special neighs/atom = 0.05785124
Neighbor list builds = 1944
Dangerous builds = 0

  unfix swp
  thermo_style custom step temp pe

next temp
jump SELF minimize_temp

  variable ftemp equal v_temp

  # Electrostatic relaxation
  fix swp swpFe atom/swap 1 1 ${rand} ${temp} ke no types 6 7
  fix swp swpFe atom/swap 1 1 9088774 ${temp} ke no types 6 7
  fix swp swpFe atom/swap 1 1 9088774 1247 ke no types 6 7
  thermo 100
  thermo_style custom step v_ftemp pe f_swp[1] f_swp[2]
  run ${nsteps}
  run 972
WARNING: No fixes with time integration, atoms won't move (../verlet.cpp:60)
PPPM initialization ...
  using 12-bit tables for long-range coulomb (../kspace.cpp:340)
  G vector (1/distance) = 0.29499882
  grid = 45 45 250
  stencil order = 5
  estimated absolute RMS force accuracy = 0.00038505019
  estimated relative force accuracy = 1.1595672e-06
  using double precision KISS FFT
  3d grid and FFT values/proc = 554040 378675
  generated 45 of 45 mixed pair_coeff terms from arithmetic mixing rule
Per MPI rank memory allocation (min/avg/max) = 24.36 | 35.12 | 63.74 Mbytes
Step v_ftemp PotEng f_swp[1] f_swp[2] 
   34020         1247   -792518.77            0            0 
   34100         1247   -792518.77           80            0 
   34200         1247   -792502.41          180            3 
   34300         1247   -792504.11          280            4 
   34400         1247   -792501.36          380            5 
   34500         1247   -792501.36          480            5 
   34600         1247   -792501.36          580            5 
   34700         1247   -792498.83          680            6 
   34800         1247   -792497.68          780            7 
   34900         1247   -792501.66          880            8 
   34992         1247   -792498.07          972           13 
Loop time of 270.555 on 4 procs for 972 steps with 4356 atoms

Performance: 0.155 ns/day, 154.638 hours/ns, 3.593 timesteps/s
93.8% CPU use with 4 MPI tasks x no OpenMP threads

MPI task timing breakdown:
Section |  min time  |  avg time  |  max time  |%varavg| %total
---------------------------------------------------------------
Pair    | 3.1762     | 7.4474     | 10.899     | 120.1 |  2.75
Bond    | 0.0015025  | 0.0040671  | 0.011083   |   6.4 |  0.00
Kspace  | 64.632     | 68.084     | 72.355     |  39.7 | 25.16
Neigh   | 16.927     | 16.955     | 16.993     |   0.6 |  6.27
Comm    | 0.44083    | 0.4908     | 0.52374    |   4.8 |  0.18
Output  | 0.00023498 | 0.00047226 | 0.0010493  |   0.0 |  0.00
Modify  | 177.54     | 177.55     | 177.56     |   0.1 | 65.62
Other   |            | 0.02436    |            |       |  0.01

Nlocal:           1089 ave        1494 max         702 min
Histogram: 2 0 0 0 0 0 0 0 1 1
Nghost:           9053 ave       12006 max        5884 min
Histogram: 2 0 0 0 0 0 0 0 0 2
Neighs:         542692 ave      798273 max      221438 min
Histogram: 1 0 1 0 0 0 0 0 0 2

Total # of neighbors = 2170766
Ave neighs/atom = 498.3393
Ave special neighs/atom = 0.05785124
Neighbor list builds = 1944
Dangerous builds = 0

  unfix swp
  thermo_style custom step temp pe

next temp
jump SELF minimize_temp

  variable ftemp equal v_temp

  # Electrostatic relaxation
  fix swp swpFe atom/swap 1 1 ${rand} ${temp} ke no types 6 7
  fix swp swpFe atom/swap 1 1 5675456 ${temp} ke no types 6 7
  fix swp swpFe atom/swap 1 1 5675456 1122 ke no types 6 7
  thermo 100
  thermo_style custom step v_ftemp pe f_swp[1] f_swp[2]
  run ${nsteps}
  run 972
WARNING: No fixes with time integration, atoms won't move (../verlet.cpp:60)
PPPM initialization ...
  using 12-bit tables for long-range coulomb (../kspace.cpp:340)
  G vector (1/distance) = 0.29499882
  grid = 45 45 250
  stencil order = 5
  estimated absolute RMS force accuracy = 0.00038505019
  estimated relative force accuracy = 1.1595672e-06
  using double precision KISS FFT
  3d grid and FFT values/proc = 554040 378675
  generated 45 of 45 mixed pair_coeff terms from arithmetic mixing rule
Per MPI rank memory allocation (min/avg/max) = 24.36 | 35.12 | 63.74 Mbytes
Step v_ftemp PotEng f_swp[1] f_swp[2] 
   34992         1122   -792498.07            0            0 
   35000         1122   -792498.07            8            0 
   35100         1122   -792516.98          108            3 
   35200         1122    -792520.7          208            5 
   35300         1122    -792520.7          308            5 
   35400         1122    -792520.7          408            5 
   35500         1122   -792520.59          508            6 
   35600         1122   -792520.59          608            6 
   35700         1122   -792518.09          708            7 
   35800         1122   -792518.09          808            7 
   35900         1122   -792518.09          908            7 
   35964         1122   -792518.09          972            7 
Loop time of 261.244 on 4 procs for 972 steps with 4356 atoms

Performance: 0.161 ns/day, 149.316 hours/ns, 3.721 timesteps/s
94.6% CPU use with 4 MPI tasks x no OpenMP threads

MPI task timing breakdown:
Section |  min time  |  avg time  |  max time  |%varavg| %total
---------------------------------------------------------------
Pair    | 3.1589     | 7.4893     | 11.007     | 120.7 |  2.87
Bond    | 0.0012634  | 0.0042656  | 0.012254   |   7.1 |  0.00
Kspace  | 59.99      | 63.51      | 67.84      |  41.5 | 24.31
Neigh   | 17.11      | 17.138     | 17.182     |   0.7 |  6.56
Comm    | 0.49064    | 0.54885    | 0.5817     |   5.0 |  0.21
Output  | 0.00034283 | 0.00075655 | 0.0017686  |   0.0 |  0.00
Modify  | 172.51     | 172.52     | 172.54     |   0.1 | 66.04
Other   |            | 0.0285     |            |       |  0.01

Nlocal:           1089 ave        1494 max         702 min
Histogram: 2 0 0 0 0 0 0 0 1 1
Nghost:           9053 ave       12006 max        5884 min
Histogram: 2 0 0 0 0 0 0 0 0 2
Neighs:         542692 ave      798273 max      221438 min
Histogram: 1 0 1 0 0 0 0 0 0 2

Total # of neighbors = 2170766
Ave neighs/atom = 498.3393
Ave special neighs/atom = 0.05785124
Neighbor list builds = 1944
Dangerous builds = 0

  unfix swp
  thermo_style custom step temp pe

next temp
jump SELF minimize_temp

  variable ftemp equal v_temp

  # Electrostatic relaxation
  fix swp swpFe atom/swap 1 1 ${rand} ${temp} ke no types 6 7
  fix swp swpFe atom/swap 1 1 129625 ${temp} ke no types 6 7
  fix swp swpFe atom/swap 1 1 129625 1009 ke no types 6 7
  thermo 100
  thermo_style custom step v_ftemp pe f_swp[1] f_swp[2]
  run ${nsteps}
  run 972
WARNING: No fixes with time integration, atoms won't move (../verlet.cpp:60)
PPPM initialization ...
  using 12-bit tables for long-range coulomb (../kspace.cpp:340)
  G vector (1/distance) = 0.29499882
  grid = 45 45 250
  stencil order = 5
  estimated absolute RMS force accuracy = 0.00038505019
  estimated relative force accuracy = 1.1595672e-06
  using double precision KISS FFT
  3d grid and FFT values/proc = 554040 378675
  generated 45 of 45 mixed pair_coeff terms from arithmetic mixing rule
Per MPI rank memory allocation (min/avg/max) = 24.36 | 35.12 | 63.74 Mbytes
Step v_ftemp PotEng f_swp[1] f_swp[2] 
   35964         1009   -792518.09            0            0 
   36000         1009   -792518.09           36            0 
   36100         1009   -792520.59          136            1 
   36200         1009   -792520.59          236            1 
   36300         1009   -792520.59          336            1 
   36400         1009   -792520.59          436            1 
   36500         1009   -792520.59          536            1 
   36600         1009   -792520.59          636            1 
   36700         1009   -792520.59          736            1 
   36800         1009   -792520.59          836            1 
   36900         1009   -792520.59          936            1 
   36936         1009   -792520.59          972            1 
Loop time of 265.808 on 4 procs for 972 steps with 4356 atoms

Performance: 0.158 ns/day, 151.925 hours/ns, 3.657 timesteps/s
94.5% CPU use with 4 MPI tasks x no OpenMP threads

MPI task timing breakdown:
Section |  min time  |  avg time  |  max time  |%varavg| %total
---------------------------------------------------------------
Pair    | 3.1492     | 7.4226     | 10.934     | 120.6 |  2.79
Bond    | 0.0011496  | 0.0040139  | 0.011687   |   7.0 |  0.00
Kspace  | 62.657     | 66.169     | 70.442     |  40.4 | 24.89
Neigh   | 16.925     | 16.955     | 16.997     |   0.7 |  6.38
Comm    | 0.46877    | 0.52415    | 0.55967    |   5.0 |  0.20
Output  | 0.00024412 | 0.00053245 | 0.0012269  |   0.0 |  0.00
Modify  | 174.69     | 174.71     | 174.72     |   0.1 | 65.73
Other   |            | 0.02726    |            |       |  0.01

Nlocal:           1089 ave        1494 max         702 min
Histogram: 2 0 0 0 0 0 0 0 1 1
Nghost:           9053 ave       12006 max        5884 min
Histogram: 2 0 0 0 0 0 0 0 0 2
Neighs:         542692 ave      798273 max      221438 min
Histogram: 1 0 1 0 0 0 0 0 0 2

Total # of neighbors = 2170766
Ave neighs/atom = 498.3393
Ave special neighs/atom = 0.05785124
Neighbor list builds = 1944
Dangerous builds = 0

  unfix swp
  thermo_style custom step temp pe

next temp
jump SELF minimize_temp

  variable ftemp equal v_temp

  # Electrostatic relaxation
  fix swp swpFe atom/swap 1 1 ${rand} ${temp} ke no types 6 7
  fix swp swpFe atom/swap 1 1 6411397 ${temp} ke no types 6 7
  fix swp swpFe atom/swap 1 1 6411397 908 ke no types 6 7
  thermo 100
  thermo_style custom step v_ftemp pe f_swp[1] f_swp[2]
  run ${nsteps}
  run 972
WARNING: No fixes with time integration, atoms won't move (../verlet.cpp:60)
PPPM initialization ...
  using 12-bit tables for long-range coulomb (../kspace.cpp:340)
  G vector (1/distance) = 0.29499882
  grid = 45 45 250
  stencil order = 5
  estimated absolute RMS force accuracy = 0.00038505019
  estimated relative force accuracy = 1.1595672e-06
  using double precision KISS FFT
  3d grid and FFT values/proc = 554040 378675
  generated 45 of 45 mixed pair_coeff terms from arithmetic mixing rule
Per MPI rank memory allocation (min/avg/max) = 24.36 | 35.12 | 63.74 Mbytes
Step v_ftemp PotEng f_swp[1] f_swp[2] 
   36936          908   -792520.59            0            0 
   37000          908   -792520.59           64            0 
   37100          908   -792520.59          164            0 
   37200          908   -792520.59          264            0 
   37300          908   -792520.59          364            0 
   37400          908   -792520.59          464            0 
   37500          908   -792521.18          564            1 
   37600          908   -792521.98          664            2 
   37700          908   -792521.98          764            2 
   37800          908   -792521.98          864            2 
   37900          908   -792521.98          964            2 
   37908          908   -792521.98          972            2 
Loop time of 270.869 on 4 procs for 972 steps with 4356 atoms

Performance: 0.155 ns/day, 154.818 hours/ns, 3.588 timesteps/s
94.3% CPU use with 4 MPI tasks x no OpenMP threads

MPI task timing breakdown:
Section |  min time  |  avg time  |  max time  |%varavg| %total
---------------------------------------------------------------
Pair    | 3.1489     | 7.4733     | 11.05      | 121.6 |  2.76
Bond    | 0.0014084  | 0.0042384  | 0.01186    |   6.8 |  0.00
Kspace  | 64.833     | 68.404     | 72.738     |  40.2 | 25.25
Neigh   | 16.953     | 16.983     | 17.028     |   0.7 |  6.27
Comm    | 0.43363    | 0.49483    | 0.54075    |   5.8 |  0.18
Output  | 0.00025771 | 0.00059768 | 0.0014127  |   0.0 |  0.00
Modify  | 177.47     | 177.48     | 177.51     |   0.1 | 65.52
Other   |            | 0.02602    |            |       |  0.01

Nlocal:           1089 ave        1494 max         702 min
Histogram: 2 0 0 0 0 0 0 0 1 1
Nghost:           9053 ave       12006 max        5884 min
Histogram: 2 0 0 0 0 0 0 0 0 2
Neighs:         542692 ave      798273 max      221438 min
Histogram: 1 0 1 0 0 0 0 0 0 2

Total # of neighbors = 2170766
Ave neighs/atom = 498.3393
Ave special neighs/atom = 0.05785124
Neighbor list builds = 1944
Dangerous builds = 0

  unfix swp
  thermo_style custom step temp pe

next temp
jump SELF minimize_temp

  variable ftemp equal v_temp

  # Electrostatic relaxation
  fix swp swpFe atom/swap 1 1 ${rand} ${temp} ke no types 6 7
  fix swp swpFe atom/swap 1 1 3177600 ${temp} ke no types 6 7
  fix swp swpFe atom/swap 1 1 3177600 817 ke no types 6 7
  thermo 100
  thermo_style custom step v_ftemp pe f_swp[1] f_swp[2]
  run ${nsteps}
  run 972
WARNING: No fixes with time integration, atoms won't move (../verlet.cpp:60)
PPPM initialization ...
  using 12-bit tables for long-range coulomb (../kspace.cpp:340)
  G vector (1/distance) = 0.29499882
  grid = 45 45 250
  stencil order = 5
  estimated absolute RMS force accuracy = 0.00038505019
  estimated relative force accuracy = 1.1595672e-06
  using double precision KISS FFT
  3d grid and FFT values/proc = 554040 378675
  generated 45 of 45 mixed pair_coeff terms from arithmetic mixing rule
Per MPI rank memory allocation (min/avg/max) = 24.36 | 35.12 | 63.74 Mbytes
Step v_ftemp PotEng f_swp[1] f_swp[2] 
   37908          817   -792521.98            0            0 
   38000          817   -792521.98           92            0 
   38100          817   -792521.98          192            0 
   38200          817   -792521.98          292            0 
   38300          817   -792521.98          392            0 
   38400          817   -792521.98          492            0 
   38500          817   -792521.98          592            0 
   38600          817   -792521.98          692            0 
   38700          817   -792522.85          792            1 
   38800          817   -792522.85          892            1 
   38880          817    -792524.7          972            2 
Loop time of 267.616 on 4 procs for 972 steps with 4356 atoms

Performance: 0.157 ns/day, 152.958 hours/ns, 3.632 timesteps/s
94.2% CPU use with 4 MPI tasks x no OpenMP threads

MPI task timing breakdown:
Section |  min time  |  avg time  |  max time  |%varavg| %total
---------------------------------------------------------------
Pair    | 3.1091     | 7.3923     | 10.908     | 121.2 |  2.76
Bond    | 0.001443   | 0.0040104  | 0.011243   |   6.6 |  0.00
Kspace  | 63.196     | 66.714     | 70.996     |  40.4 | 24.93
Neigh   | 16.968     | 16.995     | 17.037     |   0.7 |  6.35
Comm    | 0.46259    | 0.51867    | 0.55115    |   5.0 |  0.19
Output  | 0.00021359 | 0.00052197 | 0.0012856  |   0.0 |  0.00
Modify  | 175.95     | 175.97     | 175.98     |   0.1 | 65.75
Other   |            | 0.02572    |            |       |  0.01

Nlocal:           1089 ave        1494 max         702 min
Histogram: 2 0 0 0 0 0 0 0 1 1
Nghost:           9053 ave       12006 max        5884 min
Histogram: 2 0 0 0 0 0 0 0 0 2
Neighs:         542692 ave      798273 max      221438 min
Histogram: 1 0 1 0 0 0 0 0 0 2

Total # of neighbors = 2170766
Ave neighs/atom = 498.3393
Ave special neighs/atom = 0.05785124
Neighbor list builds = 1944
Dangerous builds = 0

  unfix swp
  thermo_style custom step temp pe

next temp
jump SELF minimize_temp

  variable ftemp equal v_temp

  # Electrostatic relaxation
  fix swp swpFe atom/swap 1 1 ${rand} ${temp} ke no types 6 7
  fix swp swpFe atom/swap 1 1 8668979 ${temp} ke no types 6 7
  fix swp swpFe atom/swap 1 1 8668979 735 ke no types 6 7
  thermo 100
  thermo_style custom step v_ftemp pe f_swp[1] f_swp[2]
  run ${nsteps}
  run 972
WARNING: No fixes with time integration, atoms won't move (../verlet.cpp:60)
PPPM initialization ...
  using 12-bit tables for long-range coulomb (../kspace.cpp:340)
  G vector (1/distance) = 0.29499882
  grid = 45 45 250
  stencil order = 5
  estimated absolute RMS force accuracy = 0.00038505019
  estimated relative force accuracy = 1.1595672e-06
  using double precision KISS FFT
  3d grid and FFT values/proc = 554040 378675
  generated 45 of 45 mixed pair_coeff terms from arithmetic mixing rule
Per MPI rank memory allocation (min/avg/max) = 24.36 | 35.12 | 63.74 Mbytes
Step v_ftemp PotEng f_swp[1] f_swp[2] 
   38880          735    -792524.7            0            0 
   38900          735    -792524.7           20            0 
   39000          735    -792524.7          120            0 
   39100          735    -792524.7          220            0 
   39200          735    -792524.7          320            0 
   39300          735    -792524.7          420            0 
   39400          735    -792524.7          520            0 
   39500          735    -792524.7          620            0 
   39600          735    -792524.7          720            0 
   39700          735    -792524.7          820            0 
   39800          735    -792524.7          920            0 
   39852          735    -792524.7          972            0 
Loop time of 264.431 on 4 procs for 972 steps with 4356 atoms

Performance: 0.159 ns/day, 151.138 hours/ns, 3.676 timesteps/s
94.3% CPU use with 4 MPI tasks x no OpenMP threads

MPI task timing breakdown:
Section |  min time  |  avg time  |  max time  |%varavg| %total
---------------------------------------------------------------
Pair    | 3.1314     | 7.4136     | 10.919     | 120.6 |  2.80
Bond    | 0.0012073  | 0.0040649  | 0.011834   |   7.0 |  0.00
Kspace  | 61.402     | 64.91      | 69.191     |  40.8 | 24.55
Neigh   | 17.045     | 17.08      | 17.129     |   0.8 |  6.46
Comm    | 0.47506    | 0.53947    | 0.58646    |   5.8 |  0.20
Output  | 0.00025213 | 0.00060544 | 0.0014563  |   0.0 |  0.00
Modify  | 174.44     | 174.46     | 174.47     |   0.1 | 65.97
Other   |            | 0.02742    |            |       |  0.01

Nlocal:           1089 ave        1494 max         702 min
Histogram: 2 0 0 0 0 0 0 0 1 1
Nghost:           9053 ave       12006 max        5884 min
Histogram: 2 0 0 0 0 0 0 0 0 2
Neighs:         542692 ave      798273 max      221438 min
Histogram: 1 0 1 0 0 0 0 0 0 2

Total # of neighbors = 2170766
Ave neighs/atom = 498.3393
Ave special neighs/atom = 0.05785124
Neighbor list builds = 1944
Dangerous builds = 0

  unfix swp
  thermo_style custom step temp pe

next temp
jump SELF minimize_temp

  variable ftemp equal v_temp

  # Electrostatic relaxation
  fix swp swpFe atom/swap 1 1 ${rand} ${temp} ke no types 6 7
  fix swp swpFe atom/swap 1 1 3076370 ${temp} ke no types 6 7
  fix swp swpFe atom/swap 1 1 3076370 661 ke no types 6 7
  thermo 100
  thermo_style custom step v_ftemp pe f_swp[1] f_swp[2]
  run ${nsteps}
  run 972
WARNING: No fixes with time integration, atoms won't move (../verlet.cpp:60)
PPPM initialization ...
  using 12-bit tables for long-range coulomb (../kspace.cpp:340)
  G vector (1/distance) = 0.29499882
  grid = 45 45 250
  stencil order = 5
  estimated absolute RMS force accuracy = 0.00038505019
  estimated relative force accuracy = 1.1595672e-06
  using double precision KISS FFT
  3d grid and FFT values/proc = 554040 378675
  generated 45 of 45 mixed pair_coeff terms from arithmetic mixing rule
Per MPI rank memory allocation (min/avg/max) = 24.36 | 35.12 | 63.74 Mbytes
Step v_ftemp PotEng f_swp[1] f_swp[2] 
   39852          661    -792524.7            0            0 
   39900          661    -792524.7           48            0 
   40000          661   -792520.93          148            1 
   40100          661   -792520.93          248            1 
   40200          661   -792520.93          348            1 
   40300          661   -792520.93          448            1 
   40400          661   -792518.18          548            3 
   40500          661   -792518.18          648            3 
   40600          661    -792517.1          748            4 
   40700          661    -792517.1          848            4 
   40800          661   -792519.56          948            5 
   40824          661   -792519.56          972            5 
Loop time of 265.979 on 4 procs for 972 steps with 4356 atoms

Performance: 0.158 ns/day, 152.023 hours/ns, 3.654 timesteps/s
94.4% CPU use with 4 MPI tasks x no OpenMP threads

MPI task timing breakdown:
Section |  min time  |  avg time  |  max time  |%varavg| %total
---------------------------------------------------------------
Pair    | 3.1571     | 7.4644     | 11.018     | 121.6 |  2.81
Bond    | 0.0013759  | 0.0042096  | 0.012058   |   7.0 |  0.00
Kspace  | 62.927     | 66.485     | 70.79      |  40.8 | 25.00
Neigh   | 16.973     | 17.001     | 17.043     |   0.7 |  6.39
Comm    | 0.46436    | 0.52163    | 0.55376    |   5.0 |  0.20
Output  | 0.00022919 | 0.0005901  | 0.0015177  |   0.0 |  0.00
Modify  | 174.46     | 174.48     | 174.49     |   0.1 | 65.60
Other   |            | 0.027      |            |       |  0.01

Nlocal:           1089 ave        1494 max         702 min
Histogram: 2 0 0 0 0 0 0 0 1 1
Nghost:           9053 ave       12006 max        5884 min
Histogram: 2 0 0 0 0 0 0 0 0 2
Neighs:         542692 ave      798273 max      221438 min
Histogram: 1 0 1 0 0 0 0 0 0 2

Total # of neighbors = 2170766
Ave neighs/atom = 498.3393
Ave special neighs/atom = 0.05785124
Neighbor list builds = 1944
Dangerous builds = 0

  unfix swp
  thermo_style custom step temp pe

next temp
jump SELF minimize_temp

  variable ftemp equal v_temp

  # Electrostatic relaxation
  fix swp swpFe atom/swap 1 1 ${rand} ${temp} ke no types 6 7
  fix swp swpFe atom/swap 1 1 7996883 ${temp} ke no types 6 7
  fix swp swpFe atom/swap 1 1 7996883 594 ke no types 6 7
  thermo 100
  thermo_style custom step v_ftemp pe f_swp[1] f_swp[2]
  run ${nsteps}
  run 972
WARNING: No fixes with time integration, atoms won't move (../verlet.cpp:60)
PPPM initialization ...
  using 12-bit tables for long-range coulomb (../kspace.cpp:340)
  G vector (1/distance) = 0.29499882
  grid = 45 45 250
  stencil order = 5
  estimated absolute RMS force accuracy = 0.00038505019
  estimated relative force accuracy = 1.1595672e-06
  using double precision KISS FFT
  3d grid and FFT values/proc = 554040 378675
  generated 45 of 45 mixed pair_coeff terms from arithmetic mixing rule
Per MPI rank memory allocation (min/avg/max) = 24.36 | 35.12 | 63.74 Mbytes
Step v_ftemp PotEng f_swp[1] f_swp[2] 
   40824          594   -792519.56            0            0 
   40900          594   -792520.32           76            1 
   41000          594   -792520.32          176            1 
   41100          594   -792520.32          276            1 
   41200          594   -792520.32          376            1 
   41300          594   -792520.32          476            1 
   41400          594   -792520.32          576            1 
   41500          594   -792520.32          676            1 
   41600          594   -792520.32          776            1 
   41700          594   -792520.32          876            1 
   41796          594   -792520.32          972            1 
Loop time of 264.403 on 4 procs for 972 steps with 4356 atoms

Performance: 0.159 ns/day, 151.122 hours/ns, 3.676 timesteps/s
94.1% CPU use with 4 MPI tasks x no OpenMP threads

MPI task timing breakdown:
Section |  min time  |  avg time  |  max time  |%varavg| %total
---------------------------------------------------------------
Pair    | 3.17       | 7.5448     | 11.085     | 122.1 |  2.85
Bond    | 0.0013865  | 0.0046162  | 0.012748   |   6.9 |  0.00
Kspace  | 62.132     | 65.672     | 70.048     |  41.4 | 24.84
Neigh   | 16.862     | 16.889     | 16.928     |   0.6 |  6.39
Comm    | 0.45908    | 0.50674    | 0.54021    |   4.6 |  0.19
Output  | 0.00021038 | 0.00050867 | 0.0012344  |   0.0 |  0.00
Modify  | 173.75     | 173.76     | 173.77     |   0.1 | 65.72
Other   |            | 0.02635    |            |       |  0.01

Nlocal:           1089 ave        1494 max         702 min
Histogram: 2 0 0 0 0 0 0 0 1 1
Nghost:           9053 ave       12006 max        5884 min
Histogram: 2 0 0 0 0 0 0 0 0 2
Neighs:         542692 ave      798273 max      221438 min
Histogram: 1 0 1 0 0 0 0 0 0 2

Total # of neighbors = 2170766
Ave neighs/atom = 498.3393
Ave special neighs/atom = 0.05785124
Neighbor list builds = 1944
Dangerous builds = 0

  unfix swp
  thermo_style custom step temp pe

next temp
jump SELF minimize_temp

  variable ftemp equal v_temp

  # Electrostatic relaxation
  fix swp swpFe atom/swap 1 1 ${rand} ${temp} ke no types 6 7
  fix swp swpFe atom/swap 1 1 6920765 ${temp} ke no types 6 7
  fix swp swpFe atom/swap 1 1 6920765 534 ke no types 6 7
  thermo 100
  thermo_style custom step v_ftemp pe f_swp[1] f_swp[2]
  run ${nsteps}
  run 972
WARNING: No fixes with time integration, atoms won't move (../verlet.cpp:60)
PPPM initialization ...
  using 12-bit tables for long-range coulomb (../kspace.cpp:340)
  G vector (1/distance) = 0.29499882
  grid = 45 45 250
  stencil order = 5
  estimated absolute RMS force accuracy = 0.00038505019
  estimated relative force accuracy = 1.1595672e-06
  using double precision KISS FFT
  3d grid and FFT values/proc = 554040 378675
  generated 45 of 45 mixed pair_coeff terms from arithmetic mixing rule
Per MPI rank memory allocation (min/avg/max) = 24.36 | 35.12 | 63.74 Mbytes
Step v_ftemp PotEng f_swp[1] f_swp[2] 
   41796          534   -792520.32            0            0 
   41800          534   -792520.32            4            0 
   41900          534   -792520.32          104            0 
   42000          534   -792520.32          204            0 
   42100          534   -792520.32          304            0 
   42200          534   -792520.32          404            0 
   42300          534   -792520.32          504            0 
   42400          534   -792520.32          604            0 
   42500          534   -792520.32          704            0 
   42600          534   -792522.05          804            1 
   42700          534   -792522.05          904            1 
   42768          534   -792522.05          972            1 
Loop time of 265.674 on 4 procs for 972 steps with 4356 atoms

Performance: 0.158 ns/day, 151.849 hours/ns, 3.659 timesteps/s
94.3% CPU use with 4 MPI tasks x no OpenMP threads

MPI task timing breakdown:
Section |  min time  |  avg time  |  max time  |%varavg| %total
---------------------------------------------------------------
Pair    | 3.1174     | 7.3671     | 10.827     | 120.3 |  2.77
Bond    | 0.0010929  | 0.0040037  | 0.01193    |   7.2 |  0.00
Kspace  | 62.789     | 66.251     | 70.499     |  40.1 | 24.94
Neigh   | 16.879     | 16.907     | 16.95      |   0.7 |  6.36
Comm    | 0.46379    | 0.52053    | 0.55357    |   5.1 |  0.20
Output  | 0.00027096 | 0.00065642 | 0.0015947  |   0.0 |  0.00
Modify  | 174.59     | 174.6      | 174.61     |   0.1 | 65.72
Other   |            | 0.02613    |            |       |  0.01

Nlocal:           1089 ave        1494 max         702 min
Histogram: 2 0 0 0 0 0 0 0 1 1
Nghost:           9053 ave       12006 max        5884 min
Histogram: 2 0 0 0 0 0 0 0 0 2
Neighs:         542692 ave      798273 max      221438 min
Histogram: 1 0 1 0 0 0 0 0 0 2

Total # of neighbors = 2170766
Ave neighs/atom = 498.3393
Ave special neighs/atom = 0.05785124
Neighbor list builds = 1944
Dangerous builds = 0

  unfix swp
  thermo_style custom step temp pe

next temp
jump SELF minimize_temp

  variable ftemp equal v_temp

  # Electrostatic relaxation
  fix swp swpFe atom/swap 1 1 ${rand} ${temp} ke no types 6 7
  fix swp swpFe atom/swap 1 1 4893935 ${temp} ke no types 6 7
  fix swp swpFe atom/swap 1 1 4893935 480 ke no types 6 7
  thermo 100
  thermo_style custom step v_ftemp pe f_swp[1] f_swp[2]
  run ${nsteps}
  run 972
WARNING: No fixes with time integration, atoms won't move (../verlet.cpp:60)
PPPM initialization ...
  using 12-bit tables for long-range coulomb (../kspace.cpp:340)
  G vector (1/distance) = 0.29499882
  grid = 45 45 250
  stencil order = 5
  estimated absolute RMS force accuracy = 0.00038505019
  estimated relative force accuracy = 1.1595672e-06
  using double precision KISS FFT
  3d grid and FFT values/proc = 554040 378675
  generated 45 of 45 mixed pair_coeff terms from arithmetic mixing rule
Per MPI rank memory allocation (min/avg/max) = 24.36 | 35.12 | 63.74 Mbytes
Step v_ftemp PotEng f_swp[1] f_swp[2] 
   42768          480   -792522.05            0            0 
   42800          480   -792522.05           32            0 
   42900          480   -792522.05          132            0 
   43000          480   -792522.05          232            0 
   43100          480   -792522.05          332            0 
   43200          480   -792522.05          432            0 
   43300          480   -792522.05          532            0 
   43400          480   -792522.05          632            0 
   43500          480   -792523.37          732            1 
   43600          480   -792523.37          832            1 
   43700          480   -792523.37          932            1 
   43740          480   -792523.37          972            1 
Loop time of 266.278 on 4 procs for 972 steps with 4356 atoms

Performance: 0.158 ns/day, 152.194 hours/ns, 3.650 timesteps/s
94.5% CPU use with 4 MPI tasks x no OpenMP threads

MPI task timing breakdown:
Section |  min time  |  avg time  |  max time  |%varavg| %total
---------------------------------------------------------------
Pair    | 3.131      | 7.4632     | 11.102     | 122.1 |  2.80
Bond    | 0.0014038  | 0.0041114  | 0.011666   |   6.8 |  0.00
Kspace  | 62.864     | 66.503     | 70.836     |  40.9 | 24.98
Neigh   | 16.837     | 16.863     | 16.901     |   0.6 |  6.33
Comm    | 0.44624    | 0.4953     | 0.52612    |   4.7 |  0.19
Output  | 0.00025239 | 0.00056551 | 0.0013452  |   0.0 |  0.00
Modify  | 174.91     | 174.92     | 174.94     |   0.1 | 65.69
Other   |            | 0.02574    |            |       |  0.01

Nlocal:           1089 ave        1494 max         702 min
Histogram: 2 0 0 0 0 0 0 0 1 1
Nghost:           9053 ave       12006 max        5884 min
Histogram: 2 0 0 0 0 0 0 0 0 2
Neighs:         542692 ave      798273 max      221438 min
Histogram: 1 0 1 0 0 0 0 0 0 2

Total # of neighbors = 2170766
Ave neighs/atom = 498.3393
Ave special neighs/atom = 0.05785124
Neighbor list builds = 1944
Dangerous builds = 0

  unfix swp
  thermo_style custom step temp pe

next temp
jump SELF minimize_temp

  variable ftemp equal v_temp

  # Electrostatic relaxation
  fix swp swpFe atom/swap 1 1 ${rand} ${temp} ke no types 6 7
  fix swp swpFe atom/swap 1 1 9244496 ${temp} ke no types 6 7
  fix swp swpFe atom/swap 1 1 9244496 432 ke no types 6 7
  thermo 100
  thermo_style custom step v_ftemp pe f_swp[1] f_swp[2]
  run ${nsteps}
  run 972
WARNING: No fixes with time integration, atoms won't move (../verlet.cpp:60)
PPPM initialization ...
  using 12-bit tables for long-range coulomb (../kspace.cpp:340)
  G vector (1/distance) = 0.29499882
  grid = 45 45 250
  stencil order = 5
  estimated absolute RMS force accuracy = 0.00038505019
  estimated relative force accuracy = 1.1595672e-06
  using double precision KISS FFT
  3d grid and FFT values/proc = 554040 378675
  generated 45 of 45 mixed pair_coeff terms from arithmetic mixing rule
Per MPI rank memory allocation (min/avg/max) = 24.36 | 35.12 | 63.74 Mbytes
Step v_ftemp PotEng f_swp[1] f_swp[2] 
   43740          432   -792523.37            0            0 
   43800          432   -792523.37           60            0 
   43900          432   -792523.37          160            0 
   44000          432   -792523.37          260            0 
   44100          432   -792524.94          360            1 
   44200          432   -792524.94          460            1 
   44300          432   -792524.94          560            1 
   44400          432   -792524.94          660            1 
   44500          432   -792524.94          760            1 
   44600          432   -792524.94          860            1 
   44700          432   -792524.94          960            1 
   44712          432   -792524.94          972            1 
Loop time of 266.591 on 4 procs for 972 steps with 4356 atoms

Performance: 0.158 ns/day, 152.373 hours/ns, 3.646 timesteps/s
94.3% CPU use with 4 MPI tasks x no OpenMP threads

MPI task timing breakdown:
Section |  min time  |  avg time  |  max time  |%varavg| %total
---------------------------------------------------------------
Pair    | 3.1176     | 7.4834     | 11.018     | 122.7 |  2.81
Bond    | 0.0015969  | 0.0040479  | 0.011178   |   6.5 |  0.00
Kspace  | 63.429     | 66.966     | 71.331     |  41.0 | 25.12
Neigh   | 17.069     | 17.095     | 17.135     |   0.6 |  6.41
Comm    | 0.45246    | 0.50585    | 0.53661    |   4.9 |  0.19
Output  | 0.00022924 | 0.00058337 | 0.001465   |   0.0 |  0.00
Modify  | 174.5      | 174.51     | 174.52     |   0.1 | 65.46
Other   |            | 0.02544    |            |       |  0.01

Nlocal:           1089 ave        1494 max         702 min
Histogram: 2 0 0 0 0 0 0 0 1 1
Nghost:           9053 ave       12006 max        5884 min
Histogram: 2 0 0 0 0 0 0 0 0 2
Neighs:         542692 ave      798273 max      221438 min
Histogram: 1 0 1 0 0 0 0 0 0 2

Total # of neighbors = 2170766
Ave neighs/atom = 498.3393
Ave special neighs/atom = 0.05785124
Neighbor list builds = 1944
Dangerous builds = 0

  unfix swp
  thermo_style custom step temp pe

next temp
jump SELF minimize_temp

  variable ftemp equal v_temp

  # Electrostatic relaxation
  fix swp swpFe atom/swap 1 1 ${rand} ${temp} ke no types 6 7
  fix swp swpFe atom/swap 1 1 5825701 ${temp} ke no types 6 7
  fix swp swpFe atom/swap 1 1 5825701 388 ke no types 6 7
  thermo 100
  thermo_style custom step v_ftemp pe f_swp[1] f_swp[2]
  run ${nsteps}
  run 972
WARNING: No fixes with time integration, atoms won't move (../verlet.cpp:60)
PPPM initialization ...
  using 12-bit tables for long-range coulomb (../kspace.cpp:340)
  G vector (1/distance) = 0.29499882
  grid = 45 45 250
  stencil order = 5
  estimated absolute RMS force accuracy = 0.00038505019
  estimated relative force accuracy = 1.1595672e-06
  using double precision KISS FFT
  3d grid and FFT values/proc = 554040 378675
  generated 45 of 45 mixed pair_coeff terms from arithmetic mixing rule
Per MPI rank memory allocation (min/avg/max) = 24.36 | 35.12 | 63.74 Mbytes
Step v_ftemp PotEng f_swp[1] f_swp[2] 
   44712          388   -792524.94            0            0 
   44800          388   -792524.94           88            0 
   44900          388   -792524.94          188            0 
   45000          388   -792524.94          288            0 
   45100          388   -792524.94          388            0 
   45200          388   -792524.94          488            0 
   45300          388   -792524.94          588            0 
   45400          388   -792524.94          688            0 
   45500          388   -792524.94          788            0 
   45600          388   -792524.94          888            0 
   45684          388   -792524.94          972            0 
Loop time of 262.561 on 4 procs for 972 steps with 4356 atoms

Performance: 0.160 ns/day, 150.069 hours/ns, 3.702 timesteps/s
94.5% CPU use with 4 MPI tasks x no OpenMP threads

MPI task timing breakdown:
Section |  min time  |  avg time  |  max time  |%varavg| %total
---------------------------------------------------------------
Pair    | 3.1428     | 7.4497     | 10.946     | 121.4 |  2.84
Bond    | 0.0012151  | 0.0041093  | 0.011745   |   6.9 |  0.00
Kspace  | 61.222     | 64.721     | 69.027     |  41.2 | 24.65
Neigh   | 17.091     | 17.119     | 17.162     |   0.7 |  6.52
Comm    | 0.4785     | 0.53711    | 0.57003    |   5.1 |  0.20
Output  | 0.00029285 | 0.00083819 | 0.0022599  |   0.0 |  0.00
Modify  | 172.69     | 172.7      | 172.72     |   0.1 | 65.78
Other   |            | 0.02782    |            |       |  0.01

Nlocal:           1089 ave        1494 max         702 min
Histogram: 2 0 0 0 0 0 0 0 1 1
Nghost:           9053 ave       12006 max        5884 min
Histogram: 2 0 0 0 0 0 0 0 0 2
Neighs:         542692 ave      798273 max      221438 min
Histogram: 1 0 1 0 0 0 0 0 0 2

Total # of neighbors = 2170766
Ave neighs/atom = 498.3393
Ave special neighs/atom = 0.05785124
Neighbor list builds = 1944
Dangerous builds = 0

  unfix swp
  thermo_style custom step temp pe

next temp
jump SELF minimize_temp

  variable ftemp equal v_temp

  # Electrostatic relaxation
  fix swp swpFe atom/swap 1 1 ${rand} ${temp} ke no types 6 7
  fix swp swpFe atom/swap 1 1 2375897 ${temp} ke no types 6 7
  fix swp swpFe atom/swap 1 1 2375897 349 ke no types 6 7
  thermo 100
  thermo_style custom step v_ftemp pe f_swp[1] f_swp[2]
  run ${nsteps}
  run 972
WARNING: No fixes with time integration, atoms won't move (../verlet.cpp:60)
PPPM initialization ...
  using 12-bit tables for long-range coulomb (../kspace.cpp:340)
  G vector (1/distance) = 0.29499882
  grid = 45 45 250
  stencil order = 5
  estimated absolute RMS force accuracy = 0.00038505019
  estimated relative force accuracy = 1.1595672e-06
  using double precision KISS FFT
  3d grid and FFT values/proc = 554040 378675
  generated 45 of 45 mixed pair_coeff terms from arithmetic mixing rule
Per MPI rank memory allocation (min/avg/max) = 24.36 | 35.12 | 63.74 Mbytes
Step v_ftemp PotEng f_swp[1] f_swp[2] 
   45684          349   -792524.94            0            0 
   45700          349   -792524.94           16            0 
   45800          349   -792524.94          116            0 
   45900          349   -792524.94          216            0 
   46000          349   -792524.94          316            0 
   46100          349   -792524.94          416            0 
   46200          349   -792524.94          516            0 
   46300          349   -792524.94          616            0 
   46400          349   -792524.94          716            0 
   46500          349   -792524.94          816            0 
   46600          349   -792524.94          916            0 
   46656          349   -792524.94          972            0 
Loop time of 266.888 on 4 procs for 972 steps with 4356 atoms

Performance: 0.157 ns/day, 152.543 hours/ns, 3.642 timesteps/s
94.4% CPU use with 4 MPI tasks x no OpenMP threads

MPI task timing breakdown:
Section |  min time  |  avg time  |  max time  |%varavg| %total
---------------------------------------------------------------
Pair    | 3.1216     | 7.4888     | 11.065     | 122.5 |  2.81
Bond    | 0.0014758  | 0.0042481  | 0.011542   |   6.5 |  0.00
Kspace  | 63.331     | 66.91      | 71.276     |  41.0 | 25.07
Neigh   | 16.896     | 16.922     | 16.961     |   0.6 |  6.34
Comm    | 0.43981    | 0.49044    | 0.52116    |   4.7 |  0.18
Output  | 0.0002678  | 0.00067613 | 0.0017216  |   0.0 |  0.00
Modify  | 175.03     | 175.05     | 175.06     |   0.1 | 65.59
Other   |            | 0.0268     |            |       |  0.01

Nlocal:           1089 ave        1494 max         702 min
Histogram: 2 0 0 0 0 0 0 0 1 1
Nghost:           9053 ave       12006 max        5884 min
Histogram: 2 0 0 0 0 0 0 0 0 2
Neighs:         542692 ave      798273 max      221438 min
Histogram: 1 0 1 0 0 0 0 0 0 2

Total # of neighbors = 2170766
Ave neighs/atom = 498.3393
Ave special neighs/atom = 0.05785124
Neighbor list builds = 1944
Dangerous builds = 0

  unfix swp
  thermo_style custom step temp pe

next temp
jump SELF minimize_temp

  variable ftemp equal v_temp

  # Electrostatic relaxation
  fix swp swpFe atom/swap 1 1 ${rand} ${temp} ke no types 6 7
  fix swp swpFe atom/swap 1 1 658845 ${temp} ke no types 6 7
  fix swp swpFe atom/swap 1 1 658845 314 ke no types 6 7
  thermo 100
  thermo_style custom step v_ftemp pe f_swp[1] f_swp[2]
  run ${nsteps}
  run 972
WARNING: No fixes with time integration, atoms won't move (../verlet.cpp:60)
PPPM initialization ...
  using 12-bit tables for long-range coulomb (../kspace.cpp:340)
  G vector (1/distance) = 0.29499882
  grid = 45 45 250
  stencil order = 5
  estimated absolute RMS force accuracy = 0.00038505019
  estimated relative force accuracy = 1.1595672e-06
  using double precision KISS FFT
  3d grid and FFT values/proc = 554040 378675
  generated 45 of 45 mixed pair_coeff terms from arithmetic mixing rule
Per MPI rank memory allocation (min/avg/max) = 24.36 | 35.12 | 63.74 Mbytes
Step v_ftemp PotEng f_swp[1] f_swp[2] 
   46656          314   -792524.94            0            0 
   46700          314   -792524.94           44            0 
   46800          314   -792524.94          144            0 
   46900          314   -792524.94          244            0 
   47000          314   -792524.94          344            0 
   47100          314   -792524.94          444            0 
   47200          314   -792524.94          544            0 
   47300          314   -792524.94          644            0 
   47400          314   -792524.94          744            0 
   47500          314   -792524.94          844            0 
   47600          314   -792524.94          944            0 
   47628          314   -792524.94          972            0 
Loop time of 264.148 on 4 procs for 972 steps with 4356 atoms

Performance: 0.159 ns/day, 150.976 hours/ns, 3.680 timesteps/s
94.4% CPU use with 4 MPI tasks x no OpenMP threads

MPI task timing breakdown:
Section |  min time  |  avg time  |  max time  |%varavg| %total
---------------------------------------------------------------
Pair    | 3.1786     | 7.5284     | 11.042     | 121.5 |  2.85
Bond    | 0.0013142  | 0.0043356  | 0.012222   |   6.9 |  0.00
Kspace  | 61.86      | 65.376     | 69.726     |  41.3 | 24.75
Neigh   | 17.024     | 17.049     | 17.086     |   0.6 |  6.45
Comm    | 0.43323    | 0.48263    | 0.51334    |   4.7 |  0.18
Output  | 0.00022844 | 0.00058693 | 0.0015015  |   0.0 |  0.00
Modify  | 173.67     | 173.68     | 173.69     |   0.1 | 65.75
Other   |            | 0.02753    |            |       |  0.01

Nlocal:           1089 ave        1494 max         702 min
Histogram: 2 0 0 0 0 0 0 0 1 1
Nghost:           9053 ave       12006 max        5884 min
Histogram: 2 0 0 0 0 0 0 0 0 2
Neighs:         542692 ave      798273 max      221438 min
Histogram: 1 0 1 0 0 0 0 0 0 2

Total # of neighbors = 2170766
Ave neighs/atom = 498.3393
Ave special neighs/atom = 0.05785124
Neighbor list builds = 1944
Dangerous builds = 0

  unfix swp
  thermo_style custom step temp pe

next temp
jump SELF minimize_temp

  variable ftemp equal v_temp

  # Electrostatic relaxation
  fix swp swpFe atom/swap 1 1 ${rand} ${temp} ke no types 6 7
  fix swp swpFe atom/swap 1 1 6228661 ${temp} ke no types 6 7
  fix swp swpFe atom/swap 1 1 6228661 282 ke no types 6 7
  thermo 100
  thermo_style custom step v_ftemp pe f_swp[1] f_swp[2]
  run ${nsteps}
  run 972
WARNING: No fixes with time integration, atoms won't move (../verlet.cpp:60)
PPPM initialization ...
  using 12-bit tables for long-range coulomb (../kspace.cpp:340)
  G vector (1/distance) = 0.29499882
  grid = 45 45 250
  stencil order = 5
  estimated absolute RMS force accuracy = 0.00038505019
  estimated relative force accuracy = 1.1595672e-06
  using double precision KISS FFT
  3d grid and FFT values/proc = 554040 378675
  generated 45 of 45 mixed pair_coeff terms from arithmetic mixing rule
Per MPI rank memory allocation (min/avg/max) = 24.36 | 35.12 | 63.74 Mbytes
Step v_ftemp PotEng f_swp[1] f_swp[2] 
   47628          282   -792524.94            0            0 
   47700          282   -792524.94           72            0 
   47800          282   -792524.94          172            0 
   47900          282   -792524.94          272            0 
   48000          282    -792524.7          372            1 
   48100          282    -792524.7          472            1 
   48200          282    -792524.7          572            1 
   48300          282    -792524.7          672            1 
   48400          282    -792524.7          772            1 
   48500          282    -792524.7          872            1 
   48600          282    -792524.7          972            1 
Loop time of 266.701 on 4 procs for 972 steps with 4356 atoms

Performance: 0.157 ns/day, 152.435 hours/ns, 3.645 timesteps/s
94.2% CPU use with 4 MPI tasks x no OpenMP threads

MPI task timing breakdown:
Section |  min time  |  avg time  |  max time  |%varavg| %total
---------------------------------------------------------------
Pair    | 3.1979     | 7.6551     | 11.279     | 123.8 |  2.87
Bond    | 0.0020159  | 0.0049691  | 0.013003   |   6.6 |  0.00
Kspace  | 63.52      | 67.145     | 71.601     |  41.8 | 25.18
Neigh   | 16.825     | 16.847     | 16.879     |   0.5 |  6.32
Comm    | 0.38082    | 0.42342    | 0.44981    |   4.4 |  0.16
Output  | 0.00018827 | 0.00048465 | 0.0012352  |   0.0 |  0.00
Modify  | 174.59     | 174.6      | 174.61     |   0.1 | 65.47
Other   |            | 0.02652    |            |       |  0.01

Nlocal:           1089 ave        1494 max         702 min
Histogram: 2 0 0 0 0 0 0 0 1 1
Nghost:           9053 ave       12006 max        5884 min
Histogram: 2 0 0 0 0 0 0 0 0 2
Neighs:         542692 ave      798273 max      221438 min
Histogram: 1 0 1 0 0 0 0 0 0 2

Total # of neighbors = 2170766
Ave neighs/atom = 498.3393
Ave special neighs/atom = 0.05785124
Neighbor list builds = 1944
Dangerous builds = 0

  unfix swp
  thermo_style custom step temp pe

next temp
jump SELF minimize_temp

  variable ftemp equal v_temp

  # Electrostatic relaxation
  fix swp swpFe atom/swap 1 1 ${rand} ${temp} ke no types 6 7
  fix swp swpFe atom/swap 1 1 7694381 ${temp} ke no types 6 7
  fix swp swpFe atom/swap 1 1 7694381 253 ke no types 6 7
  thermo 100
  thermo_style custom step v_ftemp pe f_swp[1] f_swp[2]
  run ${nsteps}
  run 972
WARNING: No fixes with time integration, atoms won't move (../verlet.cpp:60)
PPPM initialization ...
  using 12-bit tables for long-range coulomb (../kspace.cpp:340)
  G vector (1/distance) = 0.29499882
  grid = 45 45 250
  stencil order = 5
  estimated absolute RMS force accuracy = 0.00038505019
  estimated relative force accuracy = 1.1595672e-06
  using double precision KISS FFT
  3d grid and FFT values/proc = 554040 378675
  generated 45 of 45 mixed pair_coeff terms from arithmetic mixing rule
Per MPI rank memory allocation (min/avg/max) = 24.36 | 35.12 | 63.74 Mbytes
Step v_ftemp PotEng f_swp[1] f_swp[2] 
   48600          253    -792524.7            0            0 
   48700          253   -792524.94          100            1 
   48800          253   -792524.94          200            1 
   48900          253   -792524.94          300            1 
   49000          253   -792524.94          400            1 
   49100          253   -792524.94          500            1 
   49200          253   -792524.94          600            1 
   49300          253   -792524.94          700            1 
   49400          253   -792524.94          800            1 
   49500          253   -792524.94          900            1 
   49572          253   -792524.94          972            1 
Loop time of 268.398 on 4 procs for 972 steps with 4356 atoms

Performance: 0.156 ns/day, 153.405 hours/ns, 3.621 timesteps/s
93.6% CPU use with 4 MPI tasks x no OpenMP threads

MPI task timing breakdown:
Section |  min time  |  avg time  |  max time  |%varavg| %total
---------------------------------------------------------------
Pair    | 3.1921     | 7.6436     | 11.184     | 123.1 |  2.85
Bond    | 0.0017169  | 0.0047398  | 0.013018   |   6.9 |  0.00
Kspace  | 63.808     | 67.349     | 71.8       |  41.5 | 25.09
Neigh   | 17.101     | 17.126     | 17.162     |   0.6 |  6.38
Comm    | 0.42238    | 0.47058    | 0.49917    |   4.6 |  0.18
Output  | 0.0002018  | 0.00044825 | 0.0010029  |   0.0 |  0.00
Modify  | 175.76     | 175.78     | 175.79     |   0.1 | 65.49
Other   |            | 0.02818    |            |       |  0.01

Nlocal:           1089 ave        1494 max         702 min
Histogram: 2 0 0 0 0 0 0 0 1 1
Nghost:           9053 ave       12006 max        5884 min
Histogram: 2 0 0 0 0 0 0 0 0 2
Neighs:         542692 ave      798273 max      221438 min
Histogram: 1 0 1 0 0 0 0 0 0 2

Total # of neighbors = 2170766
Ave neighs/atom = 498.3393
Ave special neighs/atom = 0.05785124
Neighbor list builds = 1944
Dangerous builds = 0

  unfix swp
  thermo_style custom step temp pe

next temp
jump SELF minimize_temp

  variable ftemp equal v_temp

  # Electrostatic relaxation
  fix swp swpFe atom/swap 1 1 ${rand} ${temp} ke no types 6 7
  fix swp swpFe atom/swap 1 1 3903945 ${temp} ke no types 6 7
  fix swp swpFe atom/swap 1 1 3903945 227 ke no types 6 7
  thermo 100
  thermo_style custom step v_ftemp pe f_swp[1] f_swp[2]
  run ${nsteps}
  run 972
WARNING: No fixes with time integration, atoms won't move (../verlet.cpp:60)
PPPM initialization ...
  using 12-bit tables for long-range coulomb (../kspace.cpp:340)
  G vector (1/distance) = 0.29499882
  grid = 45 45 250
  stencil order = 5
  estimated absolute RMS force accuracy = 0.00038505019
  estimated relative force accuracy = 1.1595672e-06
  using double precision KISS FFT
  3d grid and FFT values/proc = 554040 378675
  generated 45 of 45 mixed pair_coeff terms from arithmetic mixing rule
Per MPI rank memory allocation (min/avg/max) = 24.36 | 35.12 | 63.74 Mbytes
Step v_ftemp PotEng f_swp[1] f_swp[2] 
   49572          227   -792524.94            0            0 
   49600          227   -792524.94           28            0 
   49700          227   -792524.94          128            0 
   49800          227   -792524.94          228            0 
   49900          227   -792523.72          328            1 
   50000          227   -792523.72          428            1 
   50100          227   -792525.59          528            3 
   50200          227   -792525.59          628            3 
   50300          227   -792525.59          728            3 
   50400          227   -792525.59          828            3 
   50500          227   -792525.59          928            3 
   50544          227   -792525.59          972            3 
Loop time of 268.342 on 4 procs for 972 steps with 4356 atoms

Performance: 0.156 ns/day, 153.373 hours/ns, 3.622 timesteps/s
94.3% CPU use with 4 MPI tasks x no OpenMP threads

MPI task timing breakdown:
Section |  min time  |  avg time  |  max time  |%varavg| %total
---------------------------------------------------------------
Pair    | 3.1368     | 7.4442     | 10.898     | 120.4 |  2.77
Bond    | 0.0010414  | 0.0039633  | 0.011423   |   6.9 |  0.00
Kspace  | 64.771     | 68.227     | 72.532     |  39.8 | 25.43
Neigh   | 16.826     | 16.852     | 16.892     |   0.6 |  6.28
Comm    | 0.4409     | 0.49437    | 0.52466    |   4.9 |  0.18
Output  | 0.00023912 | 0.00058935 | 0.0014459  |   0.0 |  0.00
Modify  | 175.28     | 175.29     | 175.31     |   0.1 | 65.33
Other   |            | 0.02508    |            |       |  0.01

Nlocal:           1089 ave        1494 max         702 min
Histogram: 2 0 0 0 0 0 0 0 1 1
Nghost:           9053 ave       12006 max        5884 min
Histogram: 2 0 0 0 0 0 0 0 0 2
Neighs:         542692 ave      798273 max      221438 min
Histogram: 1 0 1 0 0 0 0 0 0 2

Total # of neighbors = 2170766
Ave neighs/atom = 498.3393
Ave special neighs/atom = 0.05785124
Neighbor list builds = 1944
Dangerous builds = 0

  unfix swp
  thermo_style custom step temp pe

next temp
jump SELF minimize_temp

  variable ftemp equal v_temp

  # Electrostatic relaxation
  fix swp swpFe atom/swap 1 1 ${rand} ${temp} ke no types 6 7
  fix swp swpFe atom/swap 1 1 9454489 ${temp} ke no types 6 7
  fix swp swpFe atom/swap 1 1 9454489 204 ke no types 6 7
  thermo 100
  thermo_style custom step v_ftemp pe f_swp[1] f_swp[2]
  run ${nsteps}
  run 972
WARNING: No fixes with time integration, atoms won't move (../verlet.cpp:60)
PPPM initialization ...
  using 12-bit tables for long-range coulomb (../kspace.cpp:340)
  G vector (1/distance) = 0.29499882
  grid = 45 45 250
  stencil order = 5
  estimated absolute RMS force accuracy = 0.00038505019
  estimated relative force accuracy = 1.1595672e-06
  using double precision KISS FFT
  3d grid and FFT values/proc = 554040 378675
  generated 45 of 45 mixed pair_coeff terms from arithmetic mixing rule
Per MPI rank memory allocation (min/avg/max) = 24.36 | 35.12 | 63.74 Mbytes
Step v_ftemp PotEng f_swp[1] f_swp[2] 
   50544          204   -792525.59            0            0 
   50600          204   -792525.59           56            0 
   50700          204   -792525.59          156            0 
   50800          204   -792525.59          256            0 
   50900          204   -792525.59          356            0 
   51000          204   -792525.59          456            0 
   51100          204   -792525.59          556            0 
   51200          204   -792525.59          656            0 
   51300          204   -792525.59          756            0 
   51400          204   -792525.59          856            0 
   51500          204   -792525.59          956            0 
   51516          204   -792525.59          972            0 
Loop time of 263.119 on 4 procs for 972 steps with 4356 atoms

Performance: 0.160 ns/day, 150.388 hours/ns, 3.694 timesteps/s
94.5% CPU use with 4 MPI tasks x no OpenMP threads

MPI task timing breakdown:
Section |  min time  |  avg time  |  max time  |%varavg| %total
---------------------------------------------------------------
Pair    | 3.2957     | 7.6909     | 11.295     | 121.6 |  2.92
Bond    | 0.0018324  | 0.0051062  | 0.014353   |   7.5 |  0.00
Kspace  | 60.849     | 64.457     | 68.851     |  42.1 | 24.50
Neigh   | 17.04      | 17.065     | 17.098     |   0.6 |  6.49
Comm    | 0.39785    | 0.44256    | 0.4705     |   4.5 |  0.17
Output  | 0.00024944 | 0.00063809 | 0.0015862  |   0.0 |  0.00
Modify  | 173.42     | 173.43     | 173.44     |   0.1 | 65.91
Other   |            | 0.03187    |            |       |  0.01

Nlocal:           1089 ave        1494 max         702 min
Histogram: 2 0 0 0 0 0 0 0 1 1
Nghost:           9053 ave       12006 max        5884 min
Histogram: 2 0 0 0 0 0 0 0 0 2
Neighs:         542692 ave      798273 max      221438 min
Histogram: 1 0 1 0 0 0 0 0 0 2

Total # of neighbors = 2170766
Ave neighs/atom = 498.3393
Ave special neighs/atom = 0.05785124
Neighbor list builds = 1944
Dangerous builds = 0

  unfix swp
  thermo_style custom step temp pe

next temp
jump SELF minimize_temp

  variable ftemp equal v_temp

  # Electrostatic relaxation
  fix swp swpFe atom/swap 1 1 ${rand} ${temp} ke no types 6 7
  fix swp swpFe atom/swap 1 1 5910174 ${temp} ke no types 6 7
  fix swp swpFe atom/swap 1 1 5910174 183 ke no types 6 7
  thermo 100
  thermo_style custom step v_ftemp pe f_swp[1] f_swp[2]
  run ${nsteps}
  run 972
WARNING: No fixes with time integration, atoms won't move (../verlet.cpp:60)
PPPM initialization ...
  using 12-bit tables for long-range coulomb (../kspace.cpp:340)
  G vector (1/distance) = 0.29499882
  grid = 45 45 250
  stencil order = 5
  estimated absolute RMS force accuracy = 0.00038505019
  estimated relative force accuracy = 1.1595672e-06
  using double precision KISS FFT
  3d grid and FFT values/proc = 554040 378675
  generated 45 of 45 mixed pair_coeff terms from arithmetic mixing rule
Per MPI rank memory allocation (min/avg/max) = 24.36 | 35.12 | 63.74 Mbytes
Step v_ftemp PotEng f_swp[1] f_swp[2] 
   51516          183   -792525.59            0            0 
   51600          183   -792525.59           84            0 
   51700          183   -792525.59          184            0 
   51800          183   -792525.59          284            0 
   51900          183   -792525.59          384            0 
   52000          183   -792525.59          484            0 
   52100          183   -792525.59          584            0 
   52200          183   -792525.59          684            0 
   52300          183   -792525.59          784            0 
   52400          183   -792525.59          884            0 
   52488          183   -792525.59          972            0 
Loop time of 267.471 on 4 procs for 972 steps with 4356 atoms

Performance: 0.157 ns/day, 152.875 hours/ns, 3.634 timesteps/s
94.2% CPU use with 4 MPI tasks x no OpenMP threads

MPI task timing breakdown:
Section |  min time  |  avg time  |  max time  |%varavg| %total
---------------------------------------------------------------
Pair    | 3.2237     | 7.5366     | 11.047     | 121.0 |  2.82
Bond    | 0.0013848  | 0.0045608  | 0.013129   |   7.3 |  0.00
Kspace  | 63.58      | 67.093     | 71.405     |  40.6 | 25.08
Neigh   | 16.842     | 16.867     | 16.905     |   0.6 |  6.31
Comm    | 0.42256    | 0.47267    | 0.5019     |   4.7 |  0.18
Output  | 0.00021941 | 0.00050875 | 0.0012246  |   0.0 |  0.00
Modify  | 175.46     | 175.47     | 175.48     |   0.1 | 65.60
Other   |            | 0.02808    |            |       |  0.01

Nlocal:           1089 ave        1494 max         702 min
Histogram: 2 0 0 0 0 0 0 0 1 1
Nghost:           9053 ave       12006 max        5884 min
Histogram: 2 0 0 0 0 0 0 0 0 2
Neighs:         542692 ave      798273 max      221438 min
Histogram: 1 0 1 0 0 0 0 0 0 2

Total # of neighbors = 2170766
Ave neighs/atom = 498.3393
Ave special neighs/atom = 0.05785124
Neighbor list builds = 1944
Dangerous builds = 0

  unfix swp
  thermo_style custom step temp pe

next temp
jump SELF minimize_temp

  variable ftemp equal v_temp

  # Electrostatic relaxation
  fix swp swpFe atom/swap 1 1 ${rand} ${temp} ke no types 6 7
  fix swp swpFe atom/swap 1 1 1067984 ${temp} ke no types 6 7
  fix swp swpFe atom/swap 1 1 1067984 164 ke no types 6 7
  thermo 100
  thermo_style custom step v_ftemp pe f_swp[1] f_swp[2]
  run ${nsteps}
  run 972
WARNING: No fixes with time integration, atoms won't move (../verlet.cpp:60)
PPPM initialization ...
  using 12-bit tables for long-range coulomb (../kspace.cpp:340)
  G vector (1/distance) = 0.29499882
  grid = 45 45 250
  stencil order = 5
  estimated absolute RMS force accuracy = 0.00038505019
  estimated relative force accuracy = 1.1595672e-06
  using double precision KISS FFT
  3d grid and FFT values/proc = 554040 378675
  generated 45 of 45 mixed pair_coeff terms from arithmetic mixing rule
Per MPI rank memory allocation (min/avg/max) = 24.36 | 35.12 | 63.74 Mbytes
Step v_ftemp PotEng f_swp[1] f_swp[2] 
   52488          164   -792525.59            0            0 
   52500          164   -792525.59           12            0 
   52600          164   -792525.59          112            0 
   52700          164   -792525.59          212            0 
   52800          164   -792525.59          312            0 
   52900          164   -792525.59          412            0 
   53000          164   -792525.59          512            0 
   53100          164   -792525.59          612            0 
   53200          164   -792525.59          712            0 
   53300          164   -792525.59          812            0 
   53400          164   -792525.59          912            0 
   53460          164   -792525.59          972            0 
Loop time of 263.707 on 4 procs for 972 steps with 4356 atoms

Performance: 0.159 ns/day, 150.724 hours/ns, 3.686 timesteps/s
94.3% CPU use with 4 MPI tasks x no OpenMP threads

MPI task timing breakdown:
Section |  min time  |  avg time  |  max time  |%varavg| %total
---------------------------------------------------------------
Pair    | 3.1596     | 7.4738     | 10.994     | 121.3 |  2.83
Bond    | 0.001566   | 0.0044622  | 0.01222    |   6.7 |  0.00
Kspace  | 63.483     | 67.005     | 71.317     |  40.5 | 25.41
Neigh   | 16.8       | 16.825     | 16.86      |   0.6 |  6.38
Comm    | 0.40733    | 0.45535    | 0.48396    |   4.7 |  0.17
Output  | 0.00032327 | 0.0006656  | 0.0014643  |   0.0 |  0.00
Modify  | 171.91     | 171.92     | 171.93     |   0.1 | 65.19
Other   |            | 0.02465    |            |       |  0.01

Nlocal:           1089 ave        1494 max         702 min
Histogram: 2 0 0 0 0 0 0 0 1 1
Nghost:           9053 ave       12006 max        5884 min
Histogram: 2 0 0 0 0 0 0 0 0 2
Neighs:         542692 ave      798273 max      221438 min
Histogram: 1 0 1 0 0 0 0 0 0 2

Total # of neighbors = 2170766
Ave neighs/atom = 498.3393
Ave special neighs/atom = 0.05785124
Neighbor list builds = 1944
Dangerous builds = 0

  unfix swp
  thermo_style custom step temp pe

next temp
jump SELF minimize_temp

  variable ftemp equal v_temp

  # Electrostatic relaxation
  fix swp swpFe atom/swap 1 1 ${rand} ${temp} ke no types 6 7
  fix swp swpFe atom/swap 1 1 2893895 ${temp} ke no types 6 7
  fix swp swpFe atom/swap 1 1 2893895 147 ke no types 6 7
  thermo 100
  thermo_style custom step v_ftemp pe f_swp[1] f_swp[2]
  run ${nsteps}
  run 972
WARNING: No fixes with time integration, atoms won't move (../verlet.cpp:60)
PPPM initialization ...
  using 12-bit tables for long-range coulomb (../kspace.cpp:340)
  G vector (1/distance) = 0.29499882
  grid = 45 45 250
  stencil order = 5
  estimated absolute RMS force accuracy = 0.00038505019
  estimated relative force accuracy = 1.1595672e-06
  using double precision KISS FFT
  3d grid and FFT values/proc = 554040 378675
  generated 45 of 45 mixed pair_coeff terms from arithmetic mixing rule
Per MPI rank memory allocation (min/avg/max) = 24.36 | 35.12 | 63.74 Mbytes
Step v_ftemp PotEng f_swp[1] f_swp[2] 
   53460          147   -792525.59            0            0 
   53500          147   -792525.59           40            0 
   53600          147   -792525.59          140            0 
   53700          147   -792525.59          240            0 
   53800          147   -792525.59          340            0 
   53900          147   -792525.59          440            0 
   54000          147   -792525.59          540            0 
   54100          147   -792525.59          640            0 
   54200          147   -792525.59          740            0 
   54300          147   -792525.59          840            0 
   54400          147   -792525.59          940            0 
   54432          147   -792525.59          972            0 
Loop time of 264.714 on 4 procs for 972 steps with 4356 atoms

Performance: 0.159 ns/day, 151.300 hours/ns, 3.672 timesteps/s
94.1% CPU use with 4 MPI tasks x no OpenMP threads

MPI task timing breakdown:
Section |  min time  |  avg time  |  max time  |%varavg| %total
---------------------------------------------------------------
Pair    | 3.2386     | 7.645      | 11.259     | 122.2 |  2.89
Bond    | 0.0018035  | 0.0050365  | 0.01371    |   7.1 |  0.00
Kspace  | 62.512     | 66.129     | 70.534     |  41.6 | 24.98
Neigh   | 16.857     | 16.879     | 16.913     |   0.6 |  6.38
Comm    | 0.3828     | 0.42671    | 0.45471    |   4.5 |  0.16
Output  | 0.00023553 | 0.00057707 | 0.0013987  |   0.0 |  0.00
Modify  | 173.59     | 173.6      | 173.61     |   0.1 | 65.58
Other   |            | 0.02824    |            |       |  0.01

Nlocal:           1089 ave        1494 max         702 min
Histogram: 2 0 0 0 0 0 0 0 1 1
Nghost:           9053 ave       12006 max        5884 min
Histogram: 2 0 0 0 0 0 0 0 0 2
Neighs:         542692 ave      798273 max      221438 min
Histogram: 1 0 1 0 0 0 0 0 0 2

Total # of neighbors = 2170766
Ave neighs/atom = 498.3393
Ave special neighs/atom = 0.05785124
Neighbor list builds = 1944
Dangerous builds = 0

  unfix swp
  thermo_style custom step temp pe

next temp
jump SELF minimize_temp

  variable ftemp equal v_temp

  # Electrostatic relaxation
  fix swp swpFe atom/swap 1 1 ${rand} ${temp} ke no types 6 7
  fix swp swpFe atom/swap 1 1 8575820 ${temp} ke no types 6 7
  fix swp swpFe atom/swap 1 1 8575820 132 ke no types 6 7
  thermo 100
  thermo_style custom step v_ftemp pe f_swp[1] f_swp[2]
  run ${nsteps}
  run 972
WARNING: No fixes with time integration, atoms won't move (../verlet.cpp:60)
PPPM initialization ...
  using 12-bit tables for long-range coulomb (../kspace.cpp:340)
  G vector (1/distance) = 0.29499882
  grid = 45 45 250
  stencil order = 5
  estimated absolute RMS force accuracy = 0.00038505019
  estimated relative force accuracy = 1.1595672e-06
  using double precision KISS FFT
  3d grid and FFT values/proc = 554040 378675
  generated 45 of 45 mixed pair_coeff terms from arithmetic mixing rule
Per MPI rank memory allocation (min/avg/max) = 24.36 | 35.12 | 63.74 Mbytes
Step v_ftemp PotEng f_swp[1] f_swp[2] 
   54432          132   -792525.59            0            0 
   54500          132   -792525.59           68            0 
   54600          132   -792525.59          168            0 
   54700          132   -792525.59          268            0 
   54800          132   -792525.59          368            0 
   54900          132   -792525.59          468            0 
   55000          132   -792525.59          568            0 
   55100          132   -792525.59          668            0 
   55200          132   -792525.59          768            0 
   55300          132   -792525.59          868            0 
   55400          132   -792525.59          968            0 
   55404          132   -792525.59          972            0 
Loop time of 266.133 on 4 procs for 972 steps with 4356 atoms

Performance: 0.158 ns/day, 152.111 hours/ns, 3.652 timesteps/s
94.0% CPU use with 4 MPI tasks x no OpenMP threads

MPI task timing breakdown:
Section |  min time  |  avg time  |  max time  |%varavg| %total
---------------------------------------------------------------
Pair    | 3.1991     | 7.5688     | 11.192     | 122.3 |  2.84
Bond    | 0.0017164  | 0.0046143  | 0.012818   |   7.0 |  0.00
Kspace  | 62.785     | 66.412     | 70.781     |  41.3 | 24.95
Neigh   | 16.94      | 16.964     | 16.998     |   0.6 |  6.37
Comm    | 0.40258    | 0.44672    | 0.4741     |   4.5 |  0.17
Output  | 0.00020207 | 0.00054566 | 0.0014018  |   0.0 |  0.00
Modify  | 174.7      | 174.71     | 174.72     |   0.1 | 65.65
Other   |            | 0.02814    |            |       |  0.01

Nlocal:           1089 ave        1494 max         702 min
Histogram: 2 0 0 0 0 0 0 0 1 1
Nghost:           9053 ave       12006 max        5884 min
Histogram: 2 0 0 0 0 0 0 0 0 2
Neighs:         542692 ave      798273 max      221438 min
Histogram: 1 0 1 0 0 0 0 0 0 2

Total # of neighbors = 2170766
Ave neighs/atom = 498.3393
Ave special neighs/atom = 0.05785124
Neighbor list builds = 1944
Dangerous builds = 0

  unfix swp
  thermo_style custom step temp pe

next temp
jump SELF minimize_temp

  variable ftemp equal v_temp

  # Electrostatic relaxation
  fix swp swpFe atom/swap 1 1 ${rand} ${temp} ke no types 6 7
  fix swp swpFe atom/swap 1 1 8930244 ${temp} ke no types 6 7
  fix swp swpFe atom/swap 1 1 8930244 118 ke no types 6 7
  thermo 100
  thermo_style custom step v_ftemp pe f_swp[1] f_swp[2]
  run ${nsteps}
  run 972
WARNING: No fixes with time integration, atoms won't move (../verlet.cpp:60)
PPPM initialization ...
  using 12-bit tables for long-range coulomb (../kspace.cpp:340)
  G vector (1/distance) = 0.29499882
  grid = 45 45 250
  stencil order = 5
  estimated absolute RMS force accuracy = 0.00038505019
  estimated relative force accuracy = 1.1595672e-06
  using double precision KISS FFT
  3d grid and FFT values/proc = 554040 378675
  generated 45 of 45 mixed pair_coeff terms from arithmetic mixing rule
Per MPI rank memory allocation (min/avg/max) = 24.36 | 35.12 | 63.74 Mbytes
Step v_ftemp PotEng f_swp[1] f_swp[2] 
   55404          118   -792525.59            0            0 
   55500          118   -792525.59           96            0 
   55600          118   -792525.59          196            0 
   55700          118   -792525.59          296            0 
   55800          118   -792525.59          396            0 
   55900          118   -792525.59          496            0 
   56000          118   -792525.59          596            0 
   56100          118   -792525.59          696            0 
   56200          118   -792525.59          796            0 
   56300          118   -792525.59          896            0 
   56376          118   -792525.59          972            0 
Loop time of 266.137 on 4 procs for 972 steps with 4356 atoms

Performance: 0.158 ns/day, 152.113 hours/ns, 3.652 timesteps/s
94.1% CPU use with 4 MPI tasks x no OpenMP threads

MPI task timing breakdown:
Section |  min time  |  avg time  |  max time  |%varavg| %total
---------------------------------------------------------------
Pair    | 3.2014     | 7.5314     | 11.127     | 121.6 |  2.83
Bond    | 0.0013368  | 0.0045725  | 0.012815   |   7.1 |  0.00
Kspace  | 62.693     | 66.29      | 70.618     |  41.0 | 24.91
Neigh   | 16.829     | 16.855     | 16.893     |   0.6 |  6.33
Comm    | 0.43471    | 0.48543    | 0.51493    |   4.7 |  0.18
Output  | 0.00020095 | 0.00054013 | 0.0014204  |   0.0 |  0.00
Modify  | 174.93     | 174.94     | 174.96     |   0.1 | 65.73
Other   |            | 0.02683    |            |       |  0.01

Nlocal:           1089 ave        1494 max         702 min
Histogram: 2 0 0 0 0 0 0 0 1 1
Nghost:           9053 ave       12006 max        5884 min
Histogram: 2 0 0 0 0 0 0 0 0 2
Neighs:         542692 ave      798273 max      221438 min
Histogram: 1 0 1 0 0 0 0 0 0 2

Total # of neighbors = 2170766
Ave neighs/atom = 498.3393
Ave special neighs/atom = 0.05785124
Neighbor list builds = 1944
Dangerous builds = 0

  unfix swp
  thermo_style custom step temp pe

next temp
jump SELF minimize_temp

  variable ftemp equal v_temp

  # Electrostatic relaxation
  fix swp swpFe atom/swap 1 1 ${rand} ${temp} ke no types 6 7
  fix swp swpFe atom/swap 1 1 2582118 ${temp} ke no types 6 7
  fix swp swpFe atom/swap 1 1 2582118 106 ke no types 6 7
  thermo 100
  thermo_style custom step v_ftemp pe f_swp[1] f_swp[2]
  run ${nsteps}
  run 972
WARNING: No fixes with time integration, atoms won't move (../verlet.cpp:60)
PPPM initialization ...
  using 12-bit tables for long-range coulomb (../kspace.cpp:340)
  G vector (1/distance) = 0.29499882
  grid = 45 45 250
  stencil order = 5
  estimated absolute RMS force accuracy = 0.00038505019
  estimated relative force accuracy = 1.1595672e-06
  using double precision KISS FFT
  3d grid and FFT values/proc = 554040 378675
  generated 45 of 45 mixed pair_coeff terms from arithmetic mixing rule
Per MPI rank memory allocation (min/avg/max) = 24.36 | 35.12 | 63.74 Mbytes
Step v_ftemp PotEng f_swp[1] f_swp[2] 
   56376          106   -792525.59            0            0 
   56400          106   -792525.59           24            0 
   56500          106   -792525.59          124            0 
   56600          106   -792525.59          224            0 
   56700          106   -792525.59          324            0 
   56800          106   -792525.59          424            0 
   56900          106   -792525.59          524            0 
   57000          106   -792525.59          624            0 
   57100          106   -792525.59          724            0 
   57200          106   -792525.59          824            0 
   57300          106   -792525.59          924            0 
   57348          106   -792525.59          972            0 
Loop time of 265.751 on 4 procs for 972 steps with 4356 atoms

Performance: 0.158 ns/day, 151.892 hours/ns, 3.658 timesteps/s
94.5% CPU use with 4 MPI tasks x no OpenMP threads

MPI task timing breakdown:
Section |  min time  |  avg time  |  max time  |%varavg| %total
---------------------------------------------------------------
Pair    | 3.1256     | 7.3687     | 10.847     | 120.1 |  2.77
Bond    | 0.0011674  | 0.003997   | 0.01177    |   7.1 |  0.00
Kspace  | 63.056     | 66.536     | 70.778     |  40.0 | 25.04
Neigh   | 16.969     | 16.996     | 17.038     |   0.7 |  6.40
Comm    | 0.48006    | 0.53601    | 0.56987    |   5.0 |  0.20
Output  | 0.00023111 | 0.0005278  | 0.0013046  |   0.0 |  0.00
Modify  | 174.27     | 174.28     | 174.3      |   0.1 | 65.58
Other   |            | 0.02587    |            |       |  0.01

Nlocal:           1089 ave        1494 max         702 min
Histogram: 2 0 0 0 0 0 0 0 1 1
Nghost:           9053 ave       12006 max        5884 min
Histogram: 2 0 0 0 0 0 0 0 0 2
Neighs:         542692 ave      798273 max      221438 min
Histogram: 1 0 1 0 0 0 0 0 0 2

Total # of neighbors = 2170766
Ave neighs/atom = 498.3393
Ave special neighs/atom = 0.05785124
Neighbor list builds = 1944
Dangerous builds = 0

  unfix swp
  thermo_style custom step temp pe

next temp
jump SELF minimize_temp

  variable ftemp equal v_temp

  # Electrostatic relaxation
  fix swp swpFe atom/swap 1 1 ${rand} ${temp} ke no types 6 7
  fix swp swpFe atom/swap 1 1 6127347 ${temp} ke no types 6 7
  fix swp swpFe atom/swap 1 1 6127347 95 ke no types 6 7
  thermo 100
  thermo_style custom step v_ftemp pe f_swp[1] f_swp[2]
  run ${nsteps}
  run 972
WARNING: No fixes with time integration, atoms won't move (../verlet.cpp:60)
PPPM initialization ...
  using 12-bit tables for long-range coulomb (../kspace.cpp:340)
  G vector (1/distance) = 0.29499882
  grid = 45 45 250
  stencil order = 5
  estimated absolute RMS force accuracy = 0.00038505019
  estimated relative force accuracy = 1.1595672e-06
  using double precision KISS FFT
  3d grid and FFT values/proc = 554040 378675
  generated 45 of 45 mixed pair_coeff terms from arithmetic mixing rule
Per MPI rank memory allocation (min/avg/max) = 24.36 | 35.12 | 63.74 Mbytes
Step v_ftemp PotEng f_swp[1] f_swp[2] 
   57348           95   -792525.59            0            0 
   57400           95   -792525.59           52            0 
   57500           95   -792525.59          152            0 
   57600           95   -792525.59          252            0 
   57700           95   -792525.59          352            0 
   57800           95   -792525.59          452            0 
   57900           95   -792525.59          552            0 
   58000           95   -792525.59          652            0 
   58100           95   -792525.59          752            0 
   58200           95   -792525.59          852            0 
   58300           95   -792525.59          952            0 
   58320           95   -792525.59          972            0 
Loop time of 266.491 on 4 procs for 972 steps with 4356 atoms

Performance: 0.158 ns/day, 152.315 hours/ns, 3.647 timesteps/s
94.4% CPU use with 4 MPI tasks x no OpenMP threads

MPI task timing breakdown:
Section |  min time  |  avg time  |  max time  |%varavg| %total
---------------------------------------------------------------
Pair    | 3.1279     | 7.4002     | 10.916     | 121.0 |  2.78
Bond    | 0.0014567  | 0.0040979  | 0.011758   |   6.9 |  0.00
Kspace  | 62.422     | 65.942     | 70.211     |  40.5 | 24.74
Neigh   | 16.925     | 16.951     | 16.991     |   0.6 |  6.36
Comm    | 0.46111    | 0.51328    | 0.54547    |   4.6 |  0.19
Output  | 0.00028021 | 0.00060201 | 0.0014159  |   0.0 |  0.00
Modify  | 175.64     | 175.65     | 175.67     |   0.1 | 65.91
Other   |            | 0.02579    |            |       |  0.01

Nlocal:           1089 ave        1494 max         702 min
Histogram: 2 0 0 0 0 0 0 0 1 1
Nghost:           9053 ave       12006 max        5884 min
Histogram: 2 0 0 0 0 0 0 0 0 2
Neighs:         542692 ave      798273 max      221438 min
Histogram: 1 0 1 0 0 0 0 0 0 2

Total # of neighbors = 2170766
Ave neighs/atom = 498.3393
Ave special neighs/atom = 0.05785124
Neighbor list builds = 1944
Dangerous builds = 0

  unfix swp
  thermo_style custom step temp pe

next temp
jump SELF minimize_temp

  variable ftemp equal v_temp

  # Electrostatic relaxation
  fix swp swpFe atom/swap 1 1 ${rand} ${temp} ke no types 6 7
  fix swp swpFe atom/swap 1 1 3743981 ${temp} ke no types 6 7
  fix swp swpFe atom/swap 1 1 3743981 85 ke no types 6 7
  thermo 100
  thermo_style custom step v_ftemp pe f_swp[1] f_swp[2]
  run ${nsteps}
  run 972
WARNING: No fixes with time integration, atoms won't move (../verlet.cpp:60)
PPPM initialization ...
  using 12-bit tables for long-range coulomb (../kspace.cpp:340)
  G vector (1/distance) = 0.29499882
  grid = 45 45 250
  stencil order = 5
  estimated absolute RMS force accuracy = 0.00038505019
  estimated relative force accuracy = 1.1595672e-06
  using double precision KISS FFT
  3d grid and FFT values/proc = 554040 378675
  generated 45 of 45 mixed pair_coeff terms from arithmetic mixing rule
Per MPI rank memory allocation (min/avg/max) = 24.36 | 35.12 | 63.74 Mbytes
Step v_ftemp PotEng f_swp[1] f_swp[2] 
   58320           85   -792525.59            0            0 
   58400           85   -792525.59           80            0 
   58500           85   -792525.59          180            0 
   58600           85   -792525.59          280            0 
   58700           85   -792525.59          380            0 
   58800           85   -792525.59          480            0 
   58900           85   -792525.59          580            0 
   59000           85   -792525.59          680            0 
   59100           85   -792525.59          780            0 
   59200           85   -792525.59          880            0 
   59292           85   -792525.59          972            0 
Loop time of 267.187 on 4 procs for 972 steps with 4356 atoms

Performance: 0.157 ns/day, 152.713 hours/ns, 3.638 timesteps/s
94.3% CPU use with 4 MPI tasks x no OpenMP threads

MPI task timing breakdown:
Section |  min time  |  avg time  |  max time  |%varavg| %total
---------------------------------------------------------------
Pair    | 3.1949     | 7.5823     | 11.273     | 122.8 |  2.84
Bond    | 0.0016277  | 0.0047128  | 0.01304    |   7.0 |  0.00
Kspace  | 63.599     | 67.291     | 71.678     |  41.3 | 25.19
Neigh   | 16.878     | 16.902     | 16.938     |   0.6 |  6.33
Comm    | 0.4056     | 0.45101    | 0.48078    |   4.5 |  0.17
Output  | 0.00019696 | 0.0005382  | 0.0014012  |   0.0 |  0.00
Modify  | 174.92     | 174.93     | 174.94     |   0.1 | 65.47
Other   |            | 0.02616    |            |       |  0.01

Nlocal:           1089 ave        1494 max         702 min
Histogram: 2 0 0 0 0 0 0 0 1 1
Nghost:           9053 ave       12006 max        5884 min
Histogram: 2 0 0 0 0 0 0 0 0 2
Neighs:         542692 ave      798273 max      221438 min
Histogram: 1 0 1 0 0 0 0 0 0 2

Total # of neighbors = 2170766
Ave neighs/atom = 498.3393
Ave special neighs/atom = 0.05785124
Neighbor list builds = 1944
Dangerous builds = 0

  unfix swp
  thermo_style custom step temp pe

next temp
jump SELF minimize_temp

  variable ftemp equal v_temp

  # Electrostatic relaxation
  fix swp swpFe atom/swap 1 1 ${rand} ${temp} ke no types 6 7
  fix swp swpFe atom/swap 1 1 3273207 ${temp} ke no types 6 7
  fix swp swpFe atom/swap 1 1 3273207 76 ke no types 6 7
  thermo 100
  thermo_style custom step v_ftemp pe f_swp[1] f_swp[2]
  run ${nsteps}
  run 972
WARNING: No fixes with time integration, atoms won't move (../verlet.cpp:60)
PPPM initialization ...
  using 12-bit tables for long-range coulomb (../kspace.cpp:340)
  G vector (1/distance) = 0.29499882
  grid = 45 45 250
  stencil order = 5
  estimated absolute RMS force accuracy = 0.00038505019
  estimated relative force accuracy = 1.1595672e-06
  using double precision KISS FFT
  3d grid and FFT values/proc = 554040 378675
  generated 45 of 45 mixed pair_coeff terms from arithmetic mixing rule
Per MPI rank memory allocation (min/avg/max) = 24.36 | 35.12 | 63.74 Mbytes
Step v_ftemp PotEng f_swp[1] f_swp[2] 
   59292           76   -792525.59            0            0 
   59300           76   -792525.59            8            0 
   59400           76   -792525.59          108            0 
   59500           76   -792525.59          208            0 
   59600           76   -792525.59          308            0 
   59700           76   -792525.59          408            0 
   59800           76   -792525.59          508            0 
   59900           76   -792525.59          608            0 
   60000           76   -792525.59          708            0 
   60100           76   -792525.59          808            0 
   60200           76   -792525.59          908            0 
   60264           76   -792525.59          972            0 
Loop time of 267.388 on 4 procs for 972 steps with 4356 atoms

Performance: 0.157 ns/day, 152.828 hours/ns, 3.635 timesteps/s
94.1% CPU use with 4 MPI tasks x no OpenMP threads

MPI task timing breakdown:
Section |  min time  |  avg time  |  max time  |%varavg| %total
---------------------------------------------------------------
Pair    | 3.1212     | 7.3671     | 10.862     | 120.8 |  2.76
Bond    | 0.0012743  | 0.0038989  | 0.01154    |   7.1 |  0.00
Kspace  | 64.588     | 68.083     | 72.33      |  39.8 | 25.46
Neigh   | 16.898     | 16.925     | 16.966     |   0.7 |  6.33
Comm    | 0.4549     | 0.50674    | 0.54079    |   4.8 |  0.19
Output  | 0.00022452 | 0.00059958 | 0.0015622  |   0.0 |  0.00
Modify  | 174.47     | 174.48     | 174.49     |   0.1 | 65.25
Other   |            | 0.02508    |            |       |  0.01

Nlocal:           1089 ave        1494 max         702 min
Histogram: 2 0 0 0 0 0 0 0 1 1
Nghost:           9053 ave       12006 max        5884 min
Histogram: 2 0 0 0 0 0 0 0 0 2
Neighs:         542692 ave      798273 max      221438 min
Histogram: 1 0 1 0 0 0 0 0 0 2

Total # of neighbors = 2170766
Ave neighs/atom = 498.3393
Ave special neighs/atom = 0.05785124
Neighbor list builds = 1944
Dangerous builds = 0

  unfix swp
  thermo_style custom step temp pe

next temp
jump SELF minimize_temp

  variable ftemp equal v_temp

  # Electrostatic relaxation
  fix swp swpFe atom/swap 1 1 ${rand} ${temp} ke no types 6 7
  fix swp swpFe atom/swap 1 1 240566 ${temp} ke no types 6 7
  fix swp swpFe atom/swap 1 1 240566 68 ke no types 6 7
  thermo 100
  thermo_style custom step v_ftemp pe f_swp[1] f_swp[2]
  run ${nsteps}
  run 972
WARNING: No fixes with time integration, atoms won't move (../verlet.cpp:60)
PPPM initialization ...
  using 12-bit tables for long-range coulomb (../kspace.cpp:340)
  G vector (1/distance) = 0.29499882
  grid = 45 45 250
  stencil order = 5
  estimated absolute RMS force accuracy = 0.00038505019
  estimated relative force accuracy = 1.1595672e-06
  using double precision KISS FFT
  3d grid and FFT values/proc = 554040 378675
  generated 45 of 45 mixed pair_coeff terms from arithmetic mixing rule
Per MPI rank memory allocation (min/avg/max) = 24.36 | 35.12 | 63.74 Mbytes
Step v_ftemp PotEng f_swp[1] f_swp[2] 
   60264           68   -792525.59            0            0 
   60300           68   -792525.59           36            0 
   60400           68   -792525.59          136            0 
   60500           68   -792525.59          236            0 
   60600           68   -792525.59          336            0 
   60700           68   -792525.59          436            0 
   60800           68   -792525.59          536            0 
   60900           68   -792525.59          636            0 
   61000           68   -792525.59          736            0 
   61100           68   -792525.59          836            0 
   61200           68   -792525.59          936            0 
   61236           68   -792525.59          972            0 
Loop time of 268.152 on 4 procs for 972 steps with 4356 atoms

Performance: 0.157 ns/day, 153.265 hours/ns, 3.625 timesteps/s
94.1% CPU use with 4 MPI tasks x no OpenMP threads

MPI task timing breakdown:
Section |  min time  |  avg time  |  max time  |%varavg| %total
---------------------------------------------------------------
Pair    | 3.1327     | 7.4474     | 10.97      | 121.1 |  2.78
Bond    | 0.0014127  | 0.0041682  | 0.012274   |   7.2 |  0.00
Kspace  | 63.773     | 67.297     | 71.611     |  40.3 | 25.10
Neigh   | 16.788     | 16.814     | 16.851     |   0.6 |  6.27
Comm    | 0.43092    | 0.48142    | 0.51132    |   4.7 |  0.18
Output  | 0.00025115 | 0.00060641 | 0.001468   |   0.0 |  0.00
Modify  | 176.07     | 176.08     | 176.1      |   0.1 | 65.66
Other   |            | 0.02582    |            |       |  0.01

Nlocal:           1089 ave        1494 max         702 min
Histogram: 2 0 0 0 0 0 0 0 1 1
Nghost:           9053 ave       12006 max        5884 min
Histogram: 2 0 0 0 0 0 0 0 0 2
Neighs:         542692 ave      798273 max      221438 min
Histogram: 1 0 1 0 0 0 0 0 0 2

Total # of neighbors = 2170766
Ave neighs/atom = 498.3393
Ave special neighs/atom = 0.05785124
Neighbor list builds = 1944
Dangerous builds = 0

  unfix swp
  thermo_style custom step temp pe

next temp
jump SELF minimize_temp

  variable ftemp equal v_temp

  # Electrostatic relaxation
  fix swp swpFe atom/swap 1 1 ${rand} ${temp} ke no types 6 7
  fix swp swpFe atom/swap 1 1 7452945 ${temp} ke no types 6 7
  fix swp swpFe atom/swap 1 1 7452945 61 ke no types 6 7
  thermo 100
  thermo_style custom step v_ftemp pe f_swp[1] f_swp[2]
  run ${nsteps}
  run 972
WARNING: No fixes with time integration, atoms won't move (../verlet.cpp:60)
PPPM initialization ...
  using 12-bit tables for long-range coulomb (../kspace.cpp:340)
  G vector (1/distance) = 0.29499882
  grid = 45 45 250
  stencil order = 5
  estimated absolute RMS force accuracy = 0.00038505019
  estimated relative force accuracy = 1.1595672e-06
  using double precision KISS FFT
  3d grid and FFT values/proc = 554040 378675
  generated 45 of 45 mixed pair_coeff terms from arithmetic mixing rule
Per MPI rank memory allocation (min/avg/max) = 24.36 | 35.12 | 63.74 Mbytes
Step v_ftemp PotEng f_swp[1] f_swp[2] 
   61236           61   -792525.59            0            0 
   61300           61   -792525.59           64            0 
   61400           61   -792525.59          164            0 
   61500           61   -792525.59          264            0 
   61600           61   -792525.59          364            0 
   61700           61   -792525.59          464            0 
   61800           61   -792525.59          564            0 
   61900           61   -792525.59          664            0 
   62000           61   -792525.59          764            0 
   62100           61   -792525.59          864            0 
   62200           61   -792525.59          964            0 
   62208           61   -792525.59          972            0 
Loop time of 265.585 on 4 procs for 972 steps with 4356 atoms

Performance: 0.158 ns/day, 151.797 hours/ns, 3.660 timesteps/s
94.3% CPU use with 4 MPI tasks x no OpenMP threads

MPI task timing breakdown:
Section |  min time  |  avg time  |  max time  |%varavg| %total
---------------------------------------------------------------
Pair    | 3.1924     | 7.519      | 11.139     | 121.6 |  2.83
Bond    | 0.0011609  | 0.0044162  | 0.013136   |   7.6 |  0.00
Kspace  | 62.046     | 65.668     | 69.993     |  41.2 | 24.73
Neigh   | 16.839     | 16.864     | 16.902     |   0.6 |  6.35
Comm    | 0.43516    | 0.48578    | 0.51571    |   4.7 |  0.18
Output  | 0.0002483  | 0.00060111 | 0.0014752  |   0.0 |  0.00
Modify  | 175        | 175.01     | 175.03     |   0.1 | 65.90
Other   |            | 0.02785    |            |       |  0.01

Nlocal:           1089 ave        1494 max         702 min
Histogram: 2 0 0 0 0 0 0 0 1 1
Nghost:           9053 ave       12006 max        5884 min
Histogram: 2 0 0 0 0 0 0 0 0 2
Neighs:         542692 ave      798273 max      221438 min
Histogram: 1 0 1 0 0 0 0 0 0 2

Total # of neighbors = 2170766
Ave neighs/atom = 498.3393
Ave special neighs/atom = 0.05785124
Neighbor list builds = 1944
Dangerous builds = 0

  unfix swp
  thermo_style custom step temp pe

next temp
jump SELF minimize_temp

  variable ftemp equal v_temp

  # Electrostatic relaxation
  fix swp swpFe atom/swap 1 1 ${rand} ${temp} ke no types 6 7
  fix swp swpFe atom/swap 1 1 9853395 ${temp} ke no types 6 7
  fix swp swpFe atom/swap 1 1 9853395 54 ke no types 6 7
  thermo 100
  thermo_style custom step v_ftemp pe f_swp[1] f_swp[2]
  run ${nsteps}
  run 972
WARNING: No fixes with time integration, atoms won't move (../verlet.cpp:60)
PPPM initialization ...
  using 12-bit tables for long-range coulomb (../kspace.cpp:340)
  G vector (1/distance) = 0.29499882
  grid = 45 45 250
  stencil order = 5
  estimated absolute RMS force accuracy = 0.00038505019
  estimated relative force accuracy = 1.1595672e-06
  using double precision KISS FFT
  3d grid and FFT values/proc = 554040 378675
  generated 45 of 45 mixed pair_coeff terms from arithmetic mixing rule
Per MPI rank memory allocation (min/avg/max) = 24.36 | 35.12 | 63.74 Mbytes
Step v_ftemp PotEng f_swp[1] f_swp[2] 
   62208           54   -792525.59            0            0 
   62300           54   -792525.59           92            0 
   62400           54   -792525.59          192            0 
   62500           54   -792525.59          292            0 
   62600           54   -792525.59          392            0 
   62700           54   -792525.59          492            0 
   62800           54   -792525.59          592            0 
   62900           54   -792525.59          692            0 
   63000           54   -792525.59          792            0 
   63100           54   -792525.59          892            0 
   63180           54   -792525.59          972            0 
Loop time of 268.42 on 4 procs for 972 steps with 4356 atoms

Performance: 0.156 ns/day, 153.418 hours/ns, 3.621 timesteps/s
94.1% CPU use with 4 MPI tasks x no OpenMP threads

MPI task timing breakdown:
Section |  min time  |  avg time  |  max time  |%varavg| %total
---------------------------------------------------------------
Pair    | 3.1276     | 7.4209     | 10.925     | 120.2 |  2.76
Bond    | 0.0012569  | 0.0041405  | 0.011927   |   7.0 |  0.00
Kspace  | 64.095     | 67.601     | 71.892     |  39.9 | 25.18
Neigh   | 16.72      | 16.746     | 16.784     |   0.6 |  6.24
Comm    | 0.43253    | 0.4842     | 0.51396    |   4.8 |  0.18
Output  | 0.00021441 | 0.00046334 | 0.0010744  |   0.0 |  0.00
Modify  | 176.13     | 176.14     | 176.15     |   0.1 | 65.62
Other   |            | 0.02467    |            |       |  0.01

Nlocal:           1089 ave        1494 max         702 min
Histogram: 2 0 0 0 0 0 0 0 1 1
Nghost:           9053 ave       12006 max        5884 min
Histogram: 2 0 0 0 0 0 0 0 0 2
Neighs:         542692 ave      798273 max      221438 min
Histogram: 1 0 1 0 0 0 0 0 0 2

Total # of neighbors = 2170766
Ave neighs/atom = 498.3393
Ave special neighs/atom = 0.05785124
Neighbor list builds = 1944
Dangerous builds = 0

  unfix swp
  thermo_style custom step temp pe

next temp
jump SELF minimize_temp

  variable ftemp equal v_temp

  # Electrostatic relaxation
  fix swp swpFe atom/swap 1 1 ${rand} ${temp} ke no types 6 7
  fix swp swpFe atom/swap 1 1 8452553 ${temp} ke no types 6 7
  fix swp swpFe atom/swap 1 1 8452553 48 ke no types 6 7
  thermo 100
  thermo_style custom step v_ftemp pe f_swp[1] f_swp[2]
  run ${nsteps}
  run 972
WARNING: No fixes with time integration, atoms won't move (../verlet.cpp:60)
PPPM initialization ...
  using 12-bit tables for long-range coulomb (../kspace.cpp:340)
  G vector (1/distance) = 0.29499882
  grid = 45 45 250
  stencil order = 5
  estimated absolute RMS force accuracy = 0.00038505019
  estimated relative force accuracy = 1.1595672e-06
  using double precision KISS FFT
  3d grid and FFT values/proc = 554040 378675
  generated 45 of 45 mixed pair_coeff terms from arithmetic mixing rule
Per MPI rank memory allocation (min/avg/max) = 24.36 | 35.12 | 63.74 Mbytes
Step v_ftemp PotEng f_swp[1] f_swp[2] 
   63180           48   -792525.59            0            0 
   63200           48   -792525.59           20            0 
   63300           48   -792525.59          120            0 
   63400           48   -792525.59          220            0 
   63500           48   -792525.59          320            0 
   63600           48   -792525.59          420            0 
   63700           48   -792525.59          520            0 
   63800           48   -792525.59          620            0 
   63900           48   -792525.59          720            0 
   64000           48   -792525.59          820            0 
   64100           48   -792525.59          920            0 
   64152           48   -792525.59          972            0 
Loop time of 269.308 on 4 procs for 972 steps with 4356 atoms

Performance: 0.156 ns/day, 153.925 hours/ns, 3.609 timesteps/s
94.0% CPU use with 4 MPI tasks x no OpenMP threads

MPI task timing breakdown:
Section |  min time  |  avg time  |  max time  |%varavg| %total
---------------------------------------------------------------
Pair    | 3.1547     | 7.515      | 11.12      | 122.6 |  2.79
Bond    | 0.0018975  | 0.0046263  | 0.012446   |   6.6 |  0.00
Kspace  | 64.189     | 67.796     | 72.154     |  40.8 | 25.17
Neigh   | 16.834     | 16.86      | 16.899     |   0.6 |  6.26
Comm    | 0.42655    | 0.4777     | 0.50874    |   4.9 |  0.18
Output  | 0.0002425  | 0.00058319 | 0.0014252  |   0.0 |  0.00
Modify  | 176.62     | 176.63     | 176.64     |   0.1 | 65.59
Other   |            | 0.0239     |            |       |  0.01

Nlocal:           1089 ave        1494 max         702 min
Histogram: 2 0 0 0 0 0 0 0 1 1
Nghost:           9053 ave       12006 max        5884 min
Histogram: 2 0 0 0 0 0 0 0 0 2
Neighs:         542692 ave      798273 max      221438 min
Histogram: 1 0 1 0 0 0 0 0 0 2

Total # of neighbors = 2170766
Ave neighs/atom = 498.3393
Ave special neighs/atom = 0.05785124
Neighbor list builds = 1944
Dangerous builds = 0

  unfix swp
  thermo_style custom step temp pe

next temp
jump SELF minimize_temp

  variable ftemp equal v_temp

  # Electrostatic relaxation
  fix swp swpFe atom/swap 1 1 ${rand} ${temp} ke no types 6 7
  fix swp swpFe atom/swap 1 1 8678619 ${temp} ke no types 6 7
  fix swp swpFe atom/swap 1 1 8678619 43 ke no types 6 7
  thermo 100
  thermo_style custom step v_ftemp pe f_swp[1] f_swp[2]
  run ${nsteps}
  run 972
WARNING: No fixes with time integration, atoms won't move (../verlet.cpp:60)
PPPM initialization ...
  using 12-bit tables for long-range coulomb (../kspace.cpp:340)
  G vector (1/distance) = 0.29499882
  grid = 45 45 250
  stencil order = 5
  estimated absolute RMS force accuracy = 0.00038505019
  estimated relative force accuracy = 1.1595672e-06
  using double precision KISS FFT
  3d grid and FFT values/proc = 554040 378675
  generated 45 of 45 mixed pair_coeff terms from arithmetic mixing rule
Per MPI rank memory allocation (min/avg/max) = 24.36 | 35.12 | 63.74 Mbytes
Step v_ftemp PotEng f_swp[1] f_swp[2] 
   64152           43   -792525.59            0            0 
   64200           43   -792525.59           48            0 
   64300           43   -792525.59          148            0 
   64400           43   -792525.59          248            0 
   64500           43   -792525.59          348            0 
   64600           43   -792525.59          448            0 
   64700           43   -792525.59          548            0 
   64800           43   -792525.59          648            0 
   64900           43   -792525.59          748            0 
   65000           43   -792525.59          848            0 
   65100           43   -792525.59          948            0 
   65124           43   -792525.59          972            0 
Loop time of 268.277 on 4 procs for 972 steps with 4356 atoms

Performance: 0.157 ns/day, 153.336 hours/ns, 3.623 timesteps/s
94.2% CPU use with 4 MPI tasks x no OpenMP threads

MPI task timing breakdown:
Section |  min time  |  avg time  |  max time  |%varavg| %total
---------------------------------------------------------------
Pair    | 3.181      | 7.5197     | 11.073     | 122.0 |  2.80
Bond    | 0.0014407  | 0.0043856  | 0.012252   |   6.9 |  0.00
Kspace  | 63.733     | 67.29      | 71.627     |  40.8 | 25.08
Neigh   | 16.733     | 16.756     | 16.792     |   0.6 |  6.25
Comm    | 0.40627    | 0.45625    | 0.48756    |   4.9 |  0.17
Output  | 0.00025116 | 0.00061836 | 0.0015182  |   0.0 |  0.00
Modify  | 176.21     | 176.22     | 176.24     |   0.1 | 65.69
Other   |            | 0.02688    |            |       |  0.01

Nlocal:           1089 ave        1494 max         702 min
Histogram: 2 0 0 0 0 0 0 0 1 1
Nghost:           9053 ave       12006 max        5884 min
Histogram: 2 0 0 0 0 0 0 0 0 2
Neighs:         542692 ave      798273 max      221438 min
Histogram: 1 0 1 0 0 0 0 0 0 2

Total # of neighbors = 2170766
Ave neighs/atom = 498.3393
Ave special neighs/atom = 0.05785124
Neighbor list builds = 1944
Dangerous builds = 0

  unfix swp
  thermo_style custom step temp pe

next temp
jump SELF minimize_temp

  variable ftemp equal v_temp

  # Electrostatic relaxation
  fix swp swpFe atom/swap 1 1 ${rand} ${temp} ke no types 6 7
  fix swp swpFe atom/swap 1 1 2634645 ${temp} ke no types 6 7
  fix swp swpFe atom/swap 1 1 2634645 38 ke no types 6 7
  thermo 100
  thermo_style custom step v_ftemp pe f_swp[1] f_swp[2]
  run ${nsteps}
  run 972
WARNING: No fixes with time integration, atoms won't move (../verlet.cpp:60)
PPPM initialization ...
  using 12-bit tables for long-range coulomb (../kspace.cpp:340)
  G vector (1/distance) = 0.29499882
  grid = 45 45 250
  stencil order = 5
  estimated absolute RMS force accuracy = 0.00038505019
  estimated relative force accuracy = 1.1595672e-06
  using double precision KISS FFT
  3d grid and FFT values/proc = 554040 378675
  generated 45 of 45 mixed pair_coeff terms from arithmetic mixing rule
Per MPI rank memory allocation (min/avg/max) = 24.36 | 35.12 | 63.74 Mbytes
Step v_ftemp PotEng f_swp[1] f_swp[2] 
   65124           38   -792525.59            0            0 
   65200           38   -792525.59           76            0 
   65300           38   -792525.59          176            0 
   65400           38   -792525.59          276            0 
   65500           38   -792525.59          376            0 
   65600           38   -792525.59          476            0 
   65700           38   -792525.59          576            0 
   65800           38   -792525.59          676            0 
   65900           38   -792525.59          776            0 
   66000           38   -792525.59          876            0 
   66096           38   -792525.59          972            0 
Loop time of 266.744 on 4 procs for 972 steps with 4356 atoms

Performance: 0.157 ns/day, 152.460 hours/ns, 3.644 timesteps/s
94.5% CPU use with 4 MPI tasks x no OpenMP threads

MPI task timing breakdown:
Section |  min time  |  avg time  |  max time  |%varavg| %total
---------------------------------------------------------------
Pair    | 3.1581     | 7.4736     | 10.932     | 121.4 |  2.80
Bond    | 0.001147   | 0.0042069  | 0.012002   |   7.0 |  0.00
Kspace  | 63.086     | 66.547     | 70.861     |  40.7 | 24.95
Neigh   | 16.747     | 16.772     | 16.808     |   0.6 |  6.29
Comm    | 0.41576    | 0.46539    | 0.49391    |   4.7 |  0.17
Output  | 0.00018505 | 0.0004458  | 0.0010776  |   0.0 |  0.00
Modify  | 175.44     | 175.46     | 175.47     |   0.1 | 65.78
Other   |            | 0.02639    |            |       |  0.01

Nlocal:           1089 ave        1494 max         702 min
Histogram: 2 0 0 0 0 0 0 0 1 1
Nghost:           9053 ave       12006 max        5884 min
Histogram: 2 0 0 0 0 0 0 0 0 2
Neighs:         542692 ave      798273 max      221438 min
Histogram: 1 0 1 0 0 0 0 0 0 2

Total # of neighbors = 2170766
Ave neighs/atom = 498.3393
Ave special neighs/atom = 0.05785124
Neighbor list builds = 1944
Dangerous builds = 0

  unfix swp
  thermo_style custom step temp pe

next temp
jump SELF minimize_temp

  variable ftemp equal v_temp

  # Electrostatic relaxation
  fix swp swpFe atom/swap 1 1 ${rand} ${temp} ke no types 6 7
  fix swp swpFe atom/swap 1 1 805225 ${temp} ke no types 6 7
  fix swp swpFe atom/swap 1 1 805225 34 ke no types 6 7
  thermo 100
  thermo_style custom step v_ftemp pe f_swp[1] f_swp[2]
  run ${nsteps}
  run 972
WARNING: No fixes with time integration, atoms won't move (../verlet.cpp:60)
PPPM initialization ...
  using 12-bit tables for long-range coulomb (../kspace.cpp:340)
  G vector (1/distance) = 0.29499882
  grid = 45 45 250
  stencil order = 5
  estimated absolute RMS force accuracy = 0.00038505019
  estimated relative force accuracy = 1.1595672e-06
  using double precision KISS FFT
  3d grid and FFT values/proc = 554040 378675
  generated 45 of 45 mixed pair_coeff terms from arithmetic mixing rule
Per MPI rank memory allocation (min/avg/max) = 24.36 | 35.12 | 63.74 Mbytes
Step v_ftemp PotEng f_swp[1] f_swp[2] 
   66096           34   -792525.59            0            0 
   66100           34   -792525.59            4            0 
   66200           34   -792525.59          104            0 
   66300           34   -792525.59          204            0 
   66400           34   -792525.59          304            0 
   66500           34   -792525.59          404            0 
   66600           34   -792525.59          504            0 
   66700           34   -792525.59          604            0 
   66800           34   -792525.59          704            0 
   66900           34   -792525.59          804            0 
   67000           34   -792525.59          904            0 
   67068           34   -792525.59          972            0 
Loop time of 266.65 on 4 procs for 972 steps with 4356 atoms

Performance: 0.157 ns/day, 152.406 hours/ns, 3.645 timesteps/s
94.4% CPU use with 4 MPI tasks x no OpenMP threads

MPI task timing breakdown:
Section |  min time  |  avg time  |  max time  |%varavg| %total
---------------------------------------------------------------
Pair    | 3.1554     | 7.4461     | 10.95      | 120.8 |  2.79
Bond    | 0.0012758  | 0.0041711  | 0.01219    |   7.2 |  0.00
Kspace  | 62.911     | 66.418     | 70.707     |  40.5 | 24.91
Neigh   | 16.816     | 16.842     | 16.882     |   0.6 |  6.32
Comm    | 0.43411    | 0.48868    | 0.52093    |   5.0 |  0.18
Output  | 0.00022877 | 0.0005316  | 0.0012685  |   0.0 |  0.00
Modify  | 175.41     | 175.42     | 175.44     |   0.1 | 65.79
Other   |            | 0.02703    |            |       |  0.01

Nlocal:           1089 ave        1494 max         702 min
Histogram: 2 0 0 0 0 0 0 0 1 1
Nghost:           9053 ave       12006 max        5884 min
Histogram: 2 0 0 0 0 0 0 0 0 2
Neighs:         542692 ave      798273 max      221438 min
Histogram: 1 0 1 0 0 0 0 0 0 2

Total # of neighbors = 2170766
Ave neighs/atom = 498.3393
Ave special neighs/atom = 0.05785124
Neighbor list builds = 1944
Dangerous builds = 0

  unfix swp
  thermo_style custom step temp pe

next temp
jump SELF minimize_temp

  variable ftemp equal v_temp

  # Electrostatic relaxation
  fix swp swpFe atom/swap 1 1 ${rand} ${temp} ke no types 6 7
  fix swp swpFe atom/swap 1 1 5763377 ${temp} ke no types 6 7
  fix swp swpFe atom/swap 1 1 5763377 30 ke no types 6 7
  thermo 100
  thermo_style custom step v_ftemp pe f_swp[1] f_swp[2]
  run ${nsteps}
  run 972
WARNING: No fixes with time integration, atoms won't move (../verlet.cpp:60)
PPPM initialization ...
  using 12-bit tables for long-range coulomb (../kspace.cpp:340)
  G vector (1/distance) = 0.29499882
  grid = 45 45 250
  stencil order = 5
  estimated absolute RMS force accuracy = 0.00038505019
  estimated relative force accuracy = 1.1595672e-06
  using double precision KISS FFT
  3d grid and FFT values/proc = 554040 378675
  generated 45 of 45 mixed pair_coeff terms from arithmetic mixing rule
Per MPI rank memory allocation (min/avg/max) = 24.36 | 35.12 | 63.74 Mbytes
Step v_ftemp PotEng f_swp[1] f_swp[2] 
   67068           30   -792525.59            0            0 
   67100           30   -792525.59           32            0 
   67200           30   -792525.59          132            0 
   67300           30   -792525.59          232            0 
   67400           30   -792525.59          332            0 
   67500           30   -792525.59          432            0 
   67600           30   -792525.59          532            0 
   67700           30   -792525.59          632            0 
   67800           30   -792525.59          732            0 
   67900           30   -792525.59          832            0 
   68000           30   -792525.59          932            0 
   68040           30   -792525.59          972            0 
Loop time of 266.977 on 4 procs for 972 steps with 4356 atoms

Performance: 0.157 ns/day, 152.593 hours/ns, 3.641 timesteps/s
94.4% CPU use with 4 MPI tasks x no OpenMP threads

MPI task timing breakdown:
Section |  min time  |  avg time  |  max time  |%varavg| %total
---------------------------------------------------------------
Pair    | 3.1599     | 7.4557     | 10.961     | 120.3 |  2.79
Bond    | 0.0011094  | 0.0041398  | 0.01202    |   7.1 |  0.00
Kspace  | 63.147     | 66.654     | 70.948     |  40.3 | 24.97
Neigh   | 16.734     | 16.759     | 16.797     |   0.6 |  6.28
Comm    | 0.44734    | 0.49968    | 0.53016    |   4.8 |  0.19
Output  | 0.00021246 | 0.00047492 | 0.0010959  |   0.0 |  0.00
Modify  | 175.57     | 175.58     | 175.59     |   0.1 | 65.77
Other   |            | 0.02525    |            |       |  0.01

Nlocal:           1089 ave        1494 max         702 min
Histogram: 2 0 0 0 0 0 0 0 1 1
Nghost:           9053 ave       12006 max        5884 min
Histogram: 2 0 0 0 0 0 0 0 0 2
Neighs:         542692 ave      798273 max      221438 min
Histogram: 1 0 1 0 0 0 0 0 0 2

Total # of neighbors = 2170766
Ave neighs/atom = 498.3393
Ave special neighs/atom = 0.05785124
Neighbor list builds = 1944
Dangerous builds = 0

  unfix swp
  thermo_style custom step temp pe

next temp
jump SELF minimize_temp

  variable ftemp equal v_temp

  # Electrostatic relaxation
  fix swp swpFe atom/swap 1 1 ${rand} ${temp} ke no types 6 7
  fix swp swpFe atom/swap 1 1 9067551 ${temp} ke no types 6 7
  fix swp swpFe atom/swap 1 1 9067551 27 ke no types 6 7
  thermo 100
  thermo_style custom step v_ftemp pe f_swp[1] f_swp[2]
  run ${nsteps}
  run 972
WARNING: No fixes with time integration, atoms won't move (../verlet.cpp:60)
PPPM initialization ...
  using 12-bit tables for long-range coulomb (../kspace.cpp:340)
  G vector (1/distance) = 0.29499882
  grid = 45 45 250
  stencil order = 5
  estimated absolute RMS force accuracy = 0.00038505019
  estimated relative force accuracy = 1.1595672e-06
  using double precision KISS FFT
  3d grid and FFT values/proc = 554040 378675
  generated 45 of 45 mixed pair_coeff terms from arithmetic mixing rule
Per MPI rank memory allocation (min/avg/max) = 24.36 | 35.12 | 63.74 Mbytes
Step v_ftemp PotEng f_swp[1] f_swp[2] 
   68040           27   -792525.59            0            0 
   68100           27   -792525.59           60            0 
   68200           27   -792525.59          160            0 
   68300           27   -792525.59          260            0 
   68400           27   -792525.59          360            0 
   68500           27   -792525.59          460            0 
   68600           27   -792525.59          560            0 
   68700           27   -792525.59          660            0 
   68800           27   -792525.59          760            0 
   68900           27   -792525.59          860            0 
   69000           27   -792525.59          960            0 
   69012           27   -792525.59          972            0 
Loop time of 269.201 on 4 procs for 972 steps with 4356 atoms

Performance: 0.156 ns/day, 153.864 hours/ns, 3.611 timesteps/s
94.3% CPU use with 4 MPI tasks x no OpenMP threads

MPI task timing breakdown:
Section |  min time  |  avg time  |  max time  |%varavg| %total
---------------------------------------------------------------
Pair    | 3.1837     | 7.5329     | 11.165     | 122.4 |  2.80
Bond    | 0.0015641  | 0.0041595  | 0.011546   |   6.6 |  0.00
Kspace  | 63.943     | 67.578     | 71.926     |  40.9 | 25.10
Neigh   | 16.792     | 16.815     | 16.851     |   0.6 |  6.25
Comm    | 0.40493    | 0.45161    | 0.4784     |   4.5 |  0.17
Output  | 0.00020901 | 0.0005742  | 0.0015099  |   0.0 |  0.00
Modify  | 176.78     | 176.79     | 176.8      |   0.1 | 65.67
Other   |            | 0.0256     |            |       |  0.01

Nlocal:           1089 ave        1494 max         702 min
Histogram: 2 0 0 0 0 0 0 0 1 1
Nghost:           9053 ave       12006 max        5884 min
Histogram: 2 0 0 0 0 0 0 0 0 2
Neighs:         542692 ave      798273 max      221438 min
Histogram: 1 0 1 0 0 0 0 0 0 2

Total # of neighbors = 2170766
Ave neighs/atom = 498.3393
Ave special neighs/atom = 0.05785124
Neighbor list builds = 1944
Dangerous builds = 0

  unfix swp
  thermo_style custom step temp pe

next temp
jump SELF minimize_temp

  variable ftemp equal v_temp

  # Electrostatic relaxation
  fix swp swpFe atom/swap 1 1 ${rand} ${temp} ke no types 6 7
  fix swp swpFe atom/swap 1 1 8558588 ${temp} ke no types 6 7
  fix swp swpFe atom/swap 1 1 8558588 24 ke no types 6 7
  thermo 100
  thermo_style custom step v_ftemp pe f_swp[1] f_swp[2]
  run ${nsteps}
  run 972
WARNING: No fixes with time integration, atoms won't move (../verlet.cpp:60)
PPPM initialization ...
  using 12-bit tables for long-range coulomb (../kspace.cpp:340)
  G vector (1/distance) = 0.29499882
  grid = 45 45 250
  stencil order = 5
  estimated absolute RMS force accuracy = 0.00038505019
  estimated relative force accuracy = 1.1595672e-06
  using double precision KISS FFT
  3d grid and FFT values/proc = 554040 378675
  generated 45 of 45 mixed pair_coeff terms from arithmetic mixing rule
Per MPI rank memory allocation (min/avg/max) = 24.36 | 35.12 | 63.74 Mbytes
Step v_ftemp PotEng f_swp[1] f_swp[2] 
   69012           24   -792525.59            0            0 
   69100           24   -792525.59           88            0 
   69200           24   -792525.59          188            0 
   69300           24   -792525.59          288            0 
   69400           24   -792525.59          388            0 
   69500           24   -792525.59          488            0 
   69600           24   -792525.59          588            0 
   69700           24   -792525.59          688            0 
   69800           24   -792525.59          788            0 
   69900           24   -792525.59          888            0 
   69984           24   -792525.59          972            0 
Loop time of 263.465 on 4 procs for 972 steps with 4356 atoms

Performance: 0.159 ns/day, 150.586 hours/ns, 3.689 timesteps/s
94.4% CPU use with 4 MPI tasks x no OpenMP threads

MPI task timing breakdown:
Section |  min time  |  avg time  |  max time  |%varavg| %total
---------------------------------------------------------------
Pair    | 3.1605     | 7.3966     | 10.8       | 119.1 |  2.81
Bond    | 0.00095641 | 0.0038784  | 0.01149    |   7.1 |  0.00
Kspace  | 61.64      | 65.046     | 69.281     |  40.2 | 24.69
Neigh   | 16.899     | 16.927     | 16.971     |   0.7 |  6.42
Comm    | 0.47902    | 0.53792    | 0.57305    |   5.2 |  0.20
Output  | 0.00020129 | 0.00051338 | 0.0013018  |   0.0 |  0.00
Modify  | 173.51     | 173.53     | 173.54     |   0.1 | 65.86
Other   |            | 0.0278     |            |       |  0.01

Nlocal:           1089 ave        1494 max         702 min
Histogram: 2 0 0 0 0 0 0 0 1 1
Nghost:           9053 ave       12006 max        5884 min
Histogram: 2 0 0 0 0 0 0 0 0 2
Neighs:         542692 ave      798273 max      221438 min
Histogram: 1 0 1 0 0 0 0 0 0 2

Total # of neighbors = 2170766
Ave neighs/atom = 498.3393
Ave special neighs/atom = 0.05785124
Neighbor list builds = 1944
Dangerous builds = 0

  unfix swp
  thermo_style custom step temp pe

next temp
jump SELF minimize_temp

  variable ftemp equal v_temp

  # Electrostatic relaxation
  fix swp swpFe atom/swap 1 1 ${rand} ${temp} ke no types 6 7
  fix swp swpFe atom/swap 1 1 7745743 ${temp} ke no types 6 7
  fix swp swpFe atom/swap 1 1 7745743 21 ke no types 6 7
  thermo 100
  thermo_style custom step v_ftemp pe f_swp[1] f_swp[2]
  run ${nsteps}
  run 972
WARNING: No fixes with time integration, atoms won't move (../verlet.cpp:60)
PPPM initialization ...
  using 12-bit tables for long-range coulomb (../kspace.cpp:340)
  G vector (1/distance) = 0.29499882
  grid = 45 45 250
  stencil order = 5
  estimated absolute RMS force accuracy = 0.00038505019
  estimated relative force accuracy = 1.1595672e-06
  using double precision KISS FFT
  3d grid and FFT values/proc = 554040 378675
  generated 45 of 45 mixed pair_coeff terms from arithmetic mixing rule
Per MPI rank memory allocation (min/avg/max) = 24.36 | 35.12 | 63.74 Mbytes
Step v_ftemp PotEng f_swp[1] f_swp[2] 
   69984           21   -792525.59            0            0 
   70000           21   -792525.59           16            0 
   70100           21   -792525.59          116            0 
   70200           21   -792525.59          216            0 
   70300           21   -792525.59          316            0 
   70400           21   -792525.59          416            0 
   70500           21   -792525.59          516            0 
   70600           21   -792525.59          616            0 
   70700           21   -792525.59          716            0 
   70800           21   -792525.59          816            0 
   70900           21   -792525.59          916            0 
   70956           21   -792525.59          972            0 
Loop time of 266.196 on 4 procs for 972 steps with 4356 atoms

Performance: 0.158 ns/day, 152.147 hours/ns, 3.651 timesteps/s
94.2% CPU use with 4 MPI tasks x no OpenMP threads

MPI task timing breakdown:
Section |  min time  |  avg time  |  max time  |%varavg| %total
---------------------------------------------------------------
Pair    | 3.1947     | 7.6069     | 11.185     | 122.8 |  2.86
Bond    | 0.00183    | 0.0047481  | 0.012669   |   6.6 |  0.00
Kspace  | 62.685     | 66.267     | 70.677     |  41.6 | 24.89
Neigh   | 16.927     | 16.951     | 16.988     |   0.6 |  6.37
Comm    | 0.42328    | 0.47057    | 0.50135    |   4.7 |  0.18
Output  | 0.00020593 | 0.00050127 | 0.0012363  |   0.0 |  0.00
Modify  | 174.86     | 174.87     | 174.88     |   0.1 | 65.69
Other   |            | 0.02788    |            |       |  0.01

Nlocal:           1089 ave        1494 max         702 min
Histogram: 2 0 0 0 0 0 0 0 1 1
Nghost:           9053 ave       12006 max        5884 min
Histogram: 2 0 0 0 0 0 0 0 0 2
Neighs:         542692 ave      798273 max      221438 min
Histogram: 1 0 1 0 0 0 0 0 0 2

Total # of neighbors = 2170766
Ave neighs/atom = 498.3393
Ave special neighs/atom = 0.05785124
Neighbor list builds = 1944
Dangerous builds = 0

  unfix swp
  thermo_style custom step temp pe

next temp
jump SELF minimize_temp

  variable ftemp equal v_temp

  # Electrostatic relaxation
  fix swp swpFe atom/swap 1 1 ${rand} ${temp} ke no types 6 7
  fix swp swpFe atom/swap 1 1 303549 ${temp} ke no types 6 7
  fix swp swpFe atom/swap 1 1 303549 18 ke no types 6 7
  thermo 100
  thermo_style custom step v_ftemp pe f_swp[1] f_swp[2]
  run ${nsteps}
  run 972
WARNING: No fixes with time integration, atoms won't move (../verlet.cpp:60)
PPPM initialization ...
  using 12-bit tables for long-range coulomb (../kspace.cpp:340)
  G vector (1/distance) = 0.29499882
  grid = 45 45 250
  stencil order = 5
  estimated absolute RMS force accuracy = 0.00038505019
  estimated relative force accuracy = 1.1595672e-06
  using double precision KISS FFT
  3d grid and FFT values/proc = 554040 378675
  generated 45 of 45 mixed pair_coeff terms from arithmetic mixing rule
Per MPI rank memory allocation (min/avg/max) = 24.36 | 35.12 | 63.74 Mbytes
Step v_ftemp PotEng f_swp[1] f_swp[2] 
   70956           18   -792525.59            0            0 
   71000           18   -792525.59           44            0 
   71100           18   -792525.59          144            0 
   71200           18   -792525.59          244            0 
   71300           18   -792525.59          344            0 
   71400           18   -792525.59          444            0 
   71500           18   -792525.59          544            0 
   71600           18   -792525.59          644            0 
   71700           18   -792525.59          744            0 
   71800           18   -792525.59          844            0 
   71900           18   -792525.59          944            0 
   71928           18   -792525.59          972            0 
Loop time of 265.96 on 4 procs for 972 steps with 4356 atoms

Performance: 0.158 ns/day, 152.012 hours/ns, 3.655 timesteps/s
94.4% CPU use with 4 MPI tasks x no OpenMP threads

MPI task timing breakdown:
Section |  min time  |  avg time  |  max time  |%varavg| %total
---------------------------------------------------------------
Pair    | 3.1459     | 7.4474     | 10.929     | 121.0 |  2.80
Bond    | 0.0014855  | 0.0040902  | 0.011351   |   6.6 |  0.00
Kspace  | 62.995     | 66.478     | 70.779     |  40.5 | 25.00
Neigh   | 16.814     | 16.841     | 16.88      |   0.6 |  6.33
Comm    | 0.43588    | 0.48697    | 0.51953    |   4.9 |  0.18
Output  | 0.00021116 | 0.00050175 | 0.0012372  |   0.0 |  0.00
Modify  | 174.67     | 174.68     | 174.69     |   0.1 | 65.68
Other   |            | 0.02512    |            |       |  0.01

Nlocal:           1089 ave        1494 max         702 min
Histogram: 2 0 0 0 0 0 0 0 1 1
Nghost:           9053 ave       12006 max        5884 min
Histogram: 2 0 0 0 0 0 0 0 0 2
Neighs:         542692 ave      798273 max      221438 min
Histogram: 1 0 1 0 0 0 0 0 0 2

Total # of neighbors = 2170766
Ave neighs/atom = 498.3393
Ave special neighs/atom = 0.05785124
Neighbor list builds = 1944
Dangerous builds = 0

  unfix swp
  thermo_style custom step temp pe

next temp
jump SELF minimize_temp

  variable ftemp equal v_temp

  # Electrostatic relaxation
  fix swp swpFe atom/swap 1 1 ${rand} ${temp} ke no types 6 7
  fix swp swpFe atom/swap 1 1 2195032 ${temp} ke no types 6 7
  fix swp swpFe atom/swap 1 1 2195032 16 ke no types 6 7
  thermo 100
  thermo_style custom step v_ftemp pe f_swp[1] f_swp[2]
  run ${nsteps}
  run 972
WARNING: No fixes with time integration, atoms won't move (../verlet.cpp:60)
PPPM initialization ...
  using 12-bit tables for long-range coulomb (../kspace.cpp:340)
  G vector (1/distance) = 0.29499882
  grid = 45 45 250
  stencil order = 5
  estimated absolute RMS force accuracy = 0.00038505019
  estimated relative force accuracy = 1.1595672e-06
  using double precision KISS FFT
  3d grid and FFT values/proc = 554040 378675
  generated 45 of 45 mixed pair_coeff terms from arithmetic mixing rule
Per MPI rank memory allocation (min/avg/max) = 24.36 | 35.12 | 63.74 Mbytes
Step v_ftemp PotEng f_swp[1] f_swp[2] 
   71928           16   -792525.59            0            0 
   72000           16   -792525.59           72            0 
   72100           16   -792525.59          172            0 
   72200           16   -792525.59          272            0 
   72300           16   -792525.59          372            0 
   72400           16   -792525.59          472            0 
   72500           16   -792525.59          572            0 
   72600           16   -792525.59          672            0 
   72700           16   -792525.59          772            0 
   72800           16   -792525.59          872            0 
   72900           16   -792525.59          972            0 
Loop time of 265.27 on 4 procs for 972 steps with 4356 atoms

Performance: 0.158 ns/day, 151.617 hours/ns, 3.664 timesteps/s
94.4% CPU use with 4 MPI tasks x no OpenMP threads

MPI task timing breakdown:
Section |  min time  |  avg time  |  max time  |%varavg| %total
---------------------------------------------------------------
Pair    | 3.146      | 7.4276     | 10.891     | 120.5 |  2.80
Bond    | 0.0013165  | 0.0041428  | 0.011921   |   7.0 |  0.00
Kspace  | 62.733     | 66.198     | 70.479     |  40.4 | 24.96
Neigh   | 16.797     | 16.825     | 16.866     |   0.7 |  6.34
Comm    | 0.45135    | 0.50669    | 0.53992    |   5.0 |  0.19
Output  | 0.00027625 | 0.00070674 | 0.0018319  |   0.0 |  0.00
Modify  | 174.27     | 174.28     | 174.29     |   0.1 | 65.70
Other   |            | 0.02842    |            |       |  0.01

Nlocal:           1089 ave        1494 max         702 min
Histogram: 2 0 0 0 0 0 0 0 1 1
Nghost:           9053 ave       12006 max        5884 min
Histogram: 2 0 0 0 0 0 0 0 0 2
Neighs:         542692 ave      798273 max      221438 min
Histogram: 1 0 1 0 0 0 0 0 0 2

Total # of neighbors = 2170766
Ave neighs/atom = 498.3393
Ave special neighs/atom = 0.05785124
Neighbor list builds = 1944
Dangerous builds = 0

  unfix swp
  thermo_style custom step temp pe

next temp
jump SELF minimize_temp

  variable ftemp equal v_temp

  # Electrostatic relaxation
  fix swp swpFe atom/swap 1 1 ${rand} ${temp} ke no types 6 7
  fix swp swpFe atom/swap 1 1 3250684 ${temp} ke no types 6 7
  fix swp swpFe atom/swap 1 1 3250684 14 ke no types 6 7
  thermo 100
  thermo_style custom step v_ftemp pe f_swp[1] f_swp[2]
  run ${nsteps}
  run 972
WARNING: No fixes with time integration, atoms won't move (../verlet.cpp:60)
PPPM initialization ...
  using 12-bit tables for long-range coulomb (../kspace.cpp:340)
  G vector (1/distance) = 0.29499882
  grid = 45 45 250
  stencil order = 5
  estimated absolute RMS force accuracy = 0.00038505019
  estimated relative force accuracy = 1.1595672e-06
  using double precision KISS FFT
  3d grid and FFT values/proc = 554040 378675
  generated 45 of 45 mixed pair_coeff terms from arithmetic mixing rule
Per MPI rank memory allocation (min/avg/max) = 24.36 | 35.12 | 63.74 Mbytes
Step v_ftemp PotEng f_swp[1] f_swp[2] 
   72900           14   -792525.59            0            0 
   73000           14   -792525.59          100            0 
   73100           14   -792525.59          200            0 
   73200           14   -792525.59          300            0 
   73300           14   -792525.59          400            0 
   73400           14   -792525.59          500            0 
   73500           14   -792525.59          600            0 
   73600           14   -792525.59          700            0 
   73700           14   -792525.59          800            0 
   73800           14   -792525.59          900            0 
   73872           14   -792525.59          972            0 
Loop time of 264.808 on 4 procs for 972 steps with 4356 atoms

Performance: 0.159 ns/day, 151.353 hours/ns, 3.671 timesteps/s
94.1% CPU use with 4 MPI tasks x no OpenMP threads

MPI task timing breakdown:
Section |  min time  |  avg time  |  max time  |%varavg| %total
---------------------------------------------------------------
Pair    | 3.1431     | 7.4845     | 10.963     | 121.5 |  2.83
Bond    | 0.0015977  | 0.0043115  | 0.011797   |   6.6 |  0.00
Kspace  | 62.153     | 65.634     | 69.973     |  41.1 | 24.79
Neigh   | 16.821     | 16.848     | 16.888     |   0.6 |  6.36
Comm    | 0.44716    | 0.5012     | 0.53238    |   4.9 |  0.19
Output  | 0.00020478 | 0.00052982 | 0.0013675  |   0.0 |  0.00
Modify  | 174.3      | 174.31     | 174.32     |   0.1 | 65.82
Other   |            | 0.02633    |            |       |  0.01

Nlocal:           1089 ave        1494 max         702 min
Histogram: 2 0 0 0 0 0 0 0 1 1
Nghost:           9053 ave       12006 max        5884 min
Histogram: 2 0 0 0 0 0 0 0 0 2
Neighs:         542692 ave      798273 max      221438 min
Histogram: 1 0 1 0 0 0 0 0 0 2

Total # of neighbors = 2170766
Ave neighs/atom = 498.3393
Ave special neighs/atom = 0.05785124
Neighbor list builds = 1944
Dangerous builds = 0

  unfix swp
  thermo_style custom step temp pe

next temp
jump SELF minimize_temp

  variable ftemp equal v_temp

  # Electrostatic relaxation
  fix swp swpFe atom/swap 1 1 ${rand} ${temp} ke no types 6 7
  fix swp swpFe atom/swap 1 1 1810735 ${temp} ke no types 6 7
  fix swp swpFe atom/swap 1 1 1810735 12 ke no types 6 7
  thermo 100
  thermo_style custom step v_ftemp pe f_swp[1] f_swp[2]
  run ${nsteps}
  run 972
WARNING: No fixes with time integration, atoms won't move (../verlet.cpp:60)
PPPM initialization ...
  using 12-bit tables for long-range coulomb (../kspace.cpp:340)
  G vector (1/distance) = 0.29499882
  grid = 45 45 250
  stencil order = 5
  estimated absolute RMS force accuracy = 0.00038505019
  estimated relative force accuracy = 1.1595672e-06
  using double precision KISS FFT
  3d grid and FFT values/proc = 554040 378675
  generated 45 of 45 mixed pair_coeff terms from arithmetic mixing rule
Per MPI rank memory allocation (min/avg/max) = 24.36 | 35.12 | 63.74 Mbytes
Step v_ftemp PotEng f_swp[1] f_swp[2] 
   73872           12   -792525.59            0            0 
   73900           12   -792525.59           28            0 
   74000           12   -792525.59          128            0 
   74100           12   -792525.59          228            0 
   74200           12   -792525.59          328            0 
   74300           12   -792525.59          428            0 
   74400           12   -792525.59          528            0 
   74500           12   -792525.59          628            0 
   74600           12   -792525.59          728            0 
   74700           12   -792525.59          828            0 
   74800           12   -792525.59          928            0 
   74844           12   -792525.59          972            0 
Loop time of 269.086 on 4 procs for 972 steps with 4356 atoms

Performance: 0.156 ns/day, 153.798 hours/ns, 3.612 timesteps/s
94.1% CPU use with 4 MPI tasks x no OpenMP threads

MPI task timing breakdown:
Section |  min time  |  avg time  |  max time  |%varavg| %total
---------------------------------------------------------------
Pair    | 3.1323     | 7.3799     | 10.844     | 120.1 |  2.74
Bond    | 0.0013515  | 0.0039903  | 0.011201   |   6.6 |  0.00
Kspace  | 63.969     | 67.436     | 71.682     |  39.7 | 25.06
Neigh   | 16.677     | 16.703     | 16.741     |   0.6 |  6.21
Comm    | 0.43949    | 0.49166    | 0.5219     |   4.8 |  0.18
Output  | 0.00024582 | 0.0007027  | 0.0018772  |   0.0 |  0.00
Modify  | 177.03     | 177.05     | 177.06     |   0.1 | 65.80
Other   |            | 0.02565    |            |       |  0.01

Nlocal:           1089 ave        1494 max         702 min
Histogram: 2 0 0 0 0 0 0 0 1 1
Nghost:           9053 ave       12006 max        5884 min
Histogram: 2 0 0 0 0 0 0 0 0 2
Neighs:         542692 ave      798273 max      221438 min
Histogram: 1 0 1 0 0 0 0 0 0 2

Total # of neighbors = 2170766
Ave neighs/atom = 498.3393
Ave special neighs/atom = 0.05785124
Neighbor list builds = 1944
Dangerous builds = 0

  unfix swp
  thermo_style custom step temp pe

next temp
jump SELF minimize_temp

  variable ftemp equal v_temp

  # Electrostatic relaxation
  fix swp swpFe atom/swap 1 1 ${rand} ${temp} ke no types 6 7
  fix swp swpFe atom/swap 1 1 1251659 ${temp} ke no types 6 7
  fix swp swpFe atom/swap 1 1 1251659 10 ke no types 6 7
  thermo 100
  thermo_style custom step v_ftemp pe f_swp[1] f_swp[2]
  run ${nsteps}
  run 972
WARNING: No fixes with time integration, atoms won't move (../verlet.cpp:60)
PPPM initialization ...
  using 12-bit tables for long-range coulomb (../kspace.cpp:340)
  G vector (1/distance) = 0.29499882
  grid = 45 45 250
  stencil order = 5
  estimated absolute RMS force accuracy = 0.00038505019
  estimated relative force accuracy = 1.1595672e-06
  using double precision KISS FFT
  3d grid and FFT values/proc = 554040 378675
  generated 45 of 45 mixed pair_coeff terms from arithmetic mixing rule
Per MPI rank memory allocation (min/avg/max) = 24.36 | 35.12 | 63.74 Mbytes
Step v_ftemp PotEng f_swp[1] f_swp[2] 
   74844           10   -792525.59            0            0 
   74900           10   -792525.59           56            0 
   75000           10   -792525.59          156            0 
   75100           10   -792525.59          256            0 
   75200           10   -792525.59          356            0 
   75300           10   -792525.59          456            0 
   75400           10   -792525.59          556            0 
   75500           10   -792525.59          656            0 
   75600           10   -792525.59          756            0 
   75700           10   -792525.59          856            0 
   75800           10   -792525.59          956            0 
   75816           10   -792525.59          972            0 
Loop time of 265.946 on 4 procs for 972 steps with 4356 atoms

Performance: 0.158 ns/day, 152.004 hours/ns, 3.655 timesteps/s
94.1% CPU use with 4 MPI tasks x no OpenMP threads

MPI task timing breakdown:
Section |  min time  |  avg time  |  max time  |%varavg| %total
---------------------------------------------------------------
Pair    | 3.1305     | 7.4198     | 10.879     | 120.3 |  2.79
Bond    | 0.0012008  | 0.0041     | 0.011597   |   6.8 |  0.00
Kspace  | 63.451     | 66.912     | 71.199     |  40.1 | 25.16
Neigh   | 16.797     | 16.82      | 16.851     |   0.5 |  6.32
Comm    | 0.44674    | 0.49143    | 0.51916    |   4.3 |  0.18
Output  | 0.00026584 | 0.00065745 | 0.0016402  |   0.0 |  0.00
Modify  | 174.26     | 174.27     | 174.29     |   0.1 | 65.53
Other   |            | 0.02536    |            |       |  0.01

Nlocal:           1089 ave        1494 max         702 min
Histogram: 2 0 0 0 0 0 0 0 1 1
Nghost:           9053 ave       12006 max        5884 min
Histogram: 2 0 0 0 0 0 0 0 0 2
Neighs:         542692 ave      798273 max      221438 min
Histogram: 1 0 1 0 0 0 0 0 0 2

Total # of neighbors = 2170766
Ave neighs/atom = 498.3393
Ave special neighs/atom = 0.05785124
Neighbor list builds = 1944
Dangerous builds = 0

  unfix swp
  thermo_style custom step temp pe

next temp
jump SELF minimize_temp

  variable ftemp equal v_temp

  # Electrostatic relaxation
  fix swp swpFe atom/swap 1 1 ${rand} ${temp} ke no types 6 7
  fix swp swpFe atom/swap 1 1 1092138 ${temp} ke no types 6 7
  fix swp swpFe atom/swap 1 1 1092138 9 ke no types 6 7
  thermo 100
  thermo_style custom step v_ftemp pe f_swp[1] f_swp[2]
  run ${nsteps}
  run 972
WARNING: No fixes with time integration, atoms won't move (../verlet.cpp:60)
PPPM initialization ...
  using 12-bit tables for long-range coulomb (../kspace.cpp:340)
  G vector (1/distance) = 0.29499882
  grid = 45 45 250
  stencil order = 5
  estimated absolute RMS force accuracy = 0.00038505019
  estimated relative force accuracy = 1.1595672e-06
  using double precision KISS FFT
  3d grid and FFT values/proc = 554040 378675
  generated 45 of 45 mixed pair_coeff terms from arithmetic mixing rule
Per MPI rank memory allocation (min/avg/max) = 24.36 | 35.12 | 63.74 Mbytes
Step v_ftemp PotEng f_swp[1] f_swp[2] 
   75816            9   -792525.59            0            0 
   75900            9   -792525.59           84            0 
   76000            9   -792525.59          184            0 
   76100            9   -792525.59          284            0 
   76200            9   -792525.59          384            0 
   76300            9   -792525.59          484            0 
   76400            9   -792525.59          584            0 
   76500            9   -792525.59          684            0 
   76600            9   -792525.59          784            0 
   76700            9   -792525.59          884            0 
   76788            9   -792525.59          972            0 
Loop time of 265.123 on 4 procs for 972 steps with 4356 atoms

Performance: 0.158 ns/day, 151.534 hours/ns, 3.666 timesteps/s
93.9% CPU use with 4 MPI tasks x no OpenMP threads

MPI task timing breakdown:
Section |  min time  |  avg time  |  max time  |%varavg| %total
---------------------------------------------------------------
Pair    | 3.2344     | 7.6537     | 11.228     | 122.7 |  2.89
Bond    | 0.0015936  | 0.0048671  | 0.013164   |   6.9 |  0.00
Kspace  | 62.64      | 66.214     | 70.636     |  41.8 | 24.97
Neigh   | 16.863     | 16.886     | 16.921     |   0.6 |  6.37
Comm    | 0.41072    | 0.45486    | 0.48501    |   4.4 |  0.17
Output  | 0.00020836 | 0.00060079 | 0.0016296  |   0.0 |  0.00
Modify  | 173.87     | 173.88     | 173.89     |   0.1 | 65.58
Other   |            | 0.02919    |            |       |  0.01

Nlocal:           1089 ave        1494 max         702 min
Histogram: 2 0 0 0 0 0 0 0 1 1
Nghost:           9053 ave       12006 max        5884 min
Histogram: 2 0 0 0 0 0 0 0 0 2
Neighs:         542692 ave      798273 max      221438 min
Histogram: 1 0 1 0 0 0 0 0 0 2

Total # of neighbors = 2170766
Ave neighs/atom = 498.3393
Ave special neighs/atom = 0.05785124
Neighbor list builds = 1944
Dangerous builds = 0

  unfix swp
  thermo_style custom step temp pe

next temp
jump SELF minimize_temp

  variable ftemp equal v_temp

  # Electrostatic relaxation
  fix swp swpFe atom/swap 1 1 ${rand} ${temp} ke no types 6 7
  fix swp swpFe atom/swap 1 1 9182673 ${temp} ke no types 6 7
  fix swp swpFe atom/swap 1 1 9182673 8 ke no types 6 7
  thermo 100
  thermo_style custom step v_ftemp pe f_swp[1] f_swp[2]
  run ${nsteps}
  run 972
WARNING: No fixes with time integration, atoms won't move (../verlet.cpp:60)
PPPM initialization ...
  using 12-bit tables for long-range coulomb (../kspace.cpp:340)
  G vector (1/distance) = 0.29499882
  grid = 45 45 250
  stencil order = 5
  estimated absolute RMS force accuracy = 0.00038505019
  estimated relative force accuracy = 1.1595672e-06
  using double precision KISS FFT
  3d grid and FFT values/proc = 554040 378675
  generated 45 of 45 mixed pair_coeff terms from arithmetic mixing rule
Per MPI rank memory allocation (min/avg/max) = 24.36 | 35.12 | 63.74 Mbytes
Step v_ftemp PotEng f_swp[1] f_swp[2] 
   76788            8   -792525.59            0            0 
   76800            8   -792525.59           12            0 
   76900            8   -792525.59          112            0 
   77000            8   -792525.59          212            0 
   77100            8   -792525.59          312            0 
   77200            8   -792525.59          412            0 
   77300            8   -792525.59          512            0 
   77400            8   -792525.59          612            0 
   77500            8   -792525.59          712            0 
   77600            8   -792525.59          812            0 
   77700            8   -792525.59          912            0 
   77760            8   -792525.59          972            0 
Loop time of 268.399 on 4 procs for 972 steps with 4356 atoms

Performance: 0.156 ns/day, 153.406 hours/ns, 3.621 timesteps/s
94.0% CPU use with 4 MPI tasks x no OpenMP threads

MPI task timing breakdown:
Section |  min time  |  avg time  |  max time  |%varavg| %total
---------------------------------------------------------------
Pair    | 3.1786     | 7.5553     | 11.114     | 121.7 |  2.81
Bond    | 0.001799   | 0.0046319  | 0.012448   |   6.6 |  0.00
Kspace  | 64.466     | 68.026     | 72.402     |  40.6 | 25.35
Neigh   | 16.846     | 16.875     | 16.909     |   0.7 |  6.29
Comm    | 0.42295    | 0.46736    | 0.50185    |   4.9 |  0.17
Output  | 0.00021948 | 0.00051747 | 0.0012591  |   0.0 |  0.00
Modify  | 175.43     | 175.44     | 175.46     |   0.1 | 65.37
Other   |            | 0.02599    |            |       |  0.01

Nlocal:           1089 ave        1494 max         702 min
Histogram: 2 0 0 0 0 0 0 0 1 1
Nghost:           9053 ave       12006 max        5884 min
Histogram: 2 0 0 0 0 0 0 0 0 2
Neighs:         542692 ave      798273 max      221438 min
Histogram: 1 0 1 0 0 0 0 0 0 2

Total # of neighbors = 2170766
Ave neighs/atom = 498.3393
Ave special neighs/atom = 0.05785124
Neighbor list builds = 1944
Dangerous builds = 0

  unfix swp
  thermo_style custom step temp pe

next temp
jump SELF minimize_temp

  variable ftemp equal v_temp

  # Electrostatic relaxation
  fix swp swpFe atom/swap 1 1 ${rand} ${temp} ke no types 6 7
  fix swp swpFe atom/swap 1 1 8523874 ${temp} ke no types 6 7
  fix swp swpFe atom/swap 1 1 8523874 7 ke no types 6 7
  thermo 100
  thermo_style custom step v_ftemp pe f_swp[1] f_swp[2]
  run ${nsteps}
  run 972
WARNING: No fixes with time integration, atoms won't move (../verlet.cpp:60)
PPPM initialization ...
  using 12-bit tables for long-range coulomb (../kspace.cpp:340)
  G vector (1/distance) = 0.29499882
  grid = 45 45 250
  stencil order = 5
  estimated absolute RMS force accuracy = 0.00038505019
  estimated relative force accuracy = 1.1595672e-06
  using double precision KISS FFT
  3d grid and FFT values/proc = 554040 378675
  generated 45 of 45 mixed pair_coeff terms from arithmetic mixing rule
Per MPI rank memory allocation (min/avg/max) = 24.36 | 35.12 | 63.74 Mbytes
Step v_ftemp PotEng f_swp[1] f_swp[2] 
   77760            7   -792525.59            0            0 
   77800            7   -792525.59           40            0 
   77900            7   -792525.59          140            0 
   78000            7   -792525.59          240            0 
   78100            7   -792525.59          340            0 
   78200            7   -792525.59          440            0 
   78300            7   -792525.59          540            0 
   78400            7   -792525.59          640            0 
   78500            7   -792525.59          740            0 
   78600            7   -792525.59          840            0 
   78700            7   -792525.59          940            0 
   78732            7   -792525.59          972            0 
Loop time of 268.713 on 4 procs for 972 steps with 4356 atoms

Performance: 0.156 ns/day, 153.586 hours/ns, 3.617 timesteps/s
94.1% CPU use with 4 MPI tasks x no OpenMP threads

MPI task timing breakdown:
Section |  min time  |  avg time  |  max time  |%varavg| %total
---------------------------------------------------------------
Pair    | 3.1973     | 7.5251     | 11.129     | 121.8 |  2.80
Bond    | 0.0015658  | 0.0041911  | 0.01152    |   6.5 |  0.00
Kspace  | 64.144     | 67.75      | 72.077     |  40.6 | 25.21
Neigh   | 16.827     | 16.853     | 16.891     |   0.6 |  6.27
Comm    | 0.41822    | 0.46773    | 0.49706    |   4.8 |  0.17
Output  | 0.0002234  | 0.00050974 | 0.0011968  |   0.0 |  0.00
Modify  | 176.08     | 176.09     | 176.1      |   0.1 | 65.53
Other   |            | 0.02535    |            |       |  0.01

Nlocal:           1089 ave        1494 max         702 min
Histogram: 2 0 0 0 0 0 0 0 1 1
Nghost:           9053 ave       12006 max        5884 min
Histogram: 2 0 0 0 0 0 0 0 0 2
Neighs:         542692 ave      798273 max      221438 min
Histogram: 1 0 1 0 0 0 0 0 0 2

Total # of neighbors = 2170766
Ave neighs/atom = 498.3393
Ave special neighs/atom = 0.05785124
Neighbor list builds = 1944
Dangerous builds = 0

  unfix swp
  thermo_style custom step temp pe

next temp
jump SELF minimize_temp

  variable ftemp equal v_temp

  # Electrostatic relaxation
  fix swp swpFe atom/swap 1 1 ${rand} ${temp} ke no types 6 7
  fix swp swpFe atom/swap 1 1 7973751 ${temp} ke no types 6 7
  fix swp swpFe atom/swap 1 1 7973751 6 ke no types 6 7
  thermo 100
  thermo_style custom step v_ftemp pe f_swp[1] f_swp[2]
  run ${nsteps}
  run 972
WARNING: No fixes with time integration, atoms won't move (../verlet.cpp:60)
PPPM initialization ...
  using 12-bit tables for long-range coulomb (../kspace.cpp:340)
  G vector (1/distance) = 0.29499882
  grid = 45 45 250
  stencil order = 5
  estimated absolute RMS force accuracy = 0.00038505019
  estimated relative force accuracy = 1.1595672e-06
  using double precision KISS FFT
  3d grid and FFT values/proc = 554040 378675
  generated 45 of 45 mixed pair_coeff terms from arithmetic mixing rule
Per MPI rank memory allocation (min/avg/max) = 24.36 | 35.12 | 63.74 Mbytes
Step v_ftemp PotEng f_swp[1] f_swp[2] 
   78732            6   -792525.59            0            0 
   78800            6   -792525.59           68            0 
   78900            6   -792525.59          168            0 
   79000            6   -792525.59          268            0 
   79100            6   -792525.59          368            0 
   79200            6   -792525.59          468            0 
   79300            6   -792525.59          568            0 
   79400            6   -792525.59          668            0 
   79500            6   -792525.59          768            0 
   79600            6   -792525.59          868            0 
   79700            6   -792525.59          968            0 
   79704            6   -792525.59          972            0 
Loop time of 273.498 on 4 procs for 972 steps with 4356 atoms

Performance: 0.154 ns/day, 156.321 hours/ns, 3.554 timesteps/s
94.2% CPU use with 4 MPI tasks x no OpenMP threads

MPI task timing breakdown:
Section |  min time  |  avg time  |  max time  |%varavg| %total
---------------------------------------------------------------
Pair    | 3.0756     | 7.3784     | 10.96      | 121.6 |  2.70
Bond    | 0.0014787  | 0.0038008  | 0.01046    |   6.2 |  0.00
Kspace  | 65.643     | 69.228     | 73.529     |  39.7 | 25.31
Neigh   | 16.738     | 16.771     | 16.815     |   0.7 |  6.13
Comm    | 0.43498    | 0.49105    | 0.53625    |   5.4 |  0.18
Output  | 0.00022641 | 0.00051447 | 0.0012196  |   0.0 |  0.00
Modify  | 179.59     | 179.6      | 179.61     |   0.1 | 65.67
Other   |            | 0.02398    |            |       |  0.01

Nlocal:           1089 ave        1494 max         702 min
Histogram: 2 0 0 0 0 0 0 0 1 1
Nghost:           9053 ave       12006 max        5884 min
Histogram: 2 0 0 0 0 0 0 0 0 2
Neighs:         542692 ave      798273 max      221438 min
Histogram: 1 0 1 0 0 0 0 0 0 2

Total # of neighbors = 2170766
Ave neighs/atom = 498.3393
Ave special neighs/atom = 0.05785124
Neighbor list builds = 1944
Dangerous builds = 0

  unfix swp
  thermo_style custom step temp pe

next temp
jump SELF minimize_temp

  variable ftemp equal v_temp

  # Electrostatic relaxation
  fix swp swpFe atom/swap 1 1 ${rand} ${temp} ke no types 6 7
  fix swp swpFe atom/swap 1 1 8822405 ${temp} ke no types 6 7
  fix swp swpFe atom/swap 1 1 8822405 5 ke no types 6 7
  thermo 100
  thermo_style custom step v_ftemp pe f_swp[1] f_swp[2]
  run ${nsteps}
  run 972
WARNING: No fixes with time integration, atoms won't move (../verlet.cpp:60)
PPPM initialization ...
  using 12-bit tables for long-range coulomb (../kspace.cpp:340)
  G vector (1/distance) = 0.29499882
  grid = 45 45 250
  stencil order = 5
  estimated absolute RMS force accuracy = 0.00038505019
  estimated relative force accuracy = 1.1595672e-06
  using double precision KISS FFT
  3d grid and FFT values/proc = 554040 378675
  generated 45 of 45 mixed pair_coeff terms from arithmetic mixing rule
Per MPI rank memory allocation (min/avg/max) = 24.36 | 35.12 | 63.74 Mbytes
Step v_ftemp PotEng f_swp[1] f_swp[2] 
   79704            5   -792525.59            0            0 
   79800            5   -792525.59           96            0 
   79900            5   -792525.59          196            0 
   80000            5   -792525.59          296            0 
   80100            5   -792525.59          396            0 
   80200            5   -792525.59          496            0 
   80300            5   -792525.59          596            0 
   80400            5   -792525.59          696            0 
   80500            5   -792525.59          796            0 
   80600            5   -792525.59          896            0 
   80676            5   -792525.59          972            0 
Loop time of 269.25 on 4 procs for 972 steps with 4356 atoms

Performance: 0.156 ns/day, 153.892 hours/ns, 3.610 timesteps/s
94.2% CPU use with 4 MPI tasks x no OpenMP threads

MPI task timing breakdown:
Section |  min time  |  avg time  |  max time  |%varavg| %total
---------------------------------------------------------------
Pair    | 3.165      | 7.5713     | 11.229     | 122.7 |  2.81
Bond    | 0.001601   | 0.0044489  | 0.012509   |   7.0 |  0.00
Kspace  | 64.109     | 67.77      | 72.173     |  41.0 | 25.17
Neigh   | 16.773     | 16.796     | 16.83      |   0.6 |  6.24
Comm    | 0.39128    | 0.43789    | 0.46606    |   4.6 |  0.16
Output  | 0.00019866 | 0.00045677 | 0.0010668  |   0.0 |  0.00
Modify  | 176.63     | 176.64     | 176.66     |   0.1 | 65.61
Other   |            | 0.02601    |            |       |  0.01

Nlocal:           1089 ave        1494 max         702 min
Histogram: 2 0 0 0 0 0 0 0 1 1
Nghost:           9053 ave       12006 max        5884 min
Histogram: 2 0 0 0 0 0 0 0 0 2
Neighs:         542692 ave      798273 max      221438 min
Histogram: 1 0 1 0 0 0 0 0 0 2

Total # of neighbors = 2170766
Ave neighs/atom = 498.3393
Ave special neighs/atom = 0.05785124
Neighbor list builds = 1944
Dangerous builds = 0

  unfix swp
  thermo_style custom step temp pe

next temp
jump SELF minimize_temp

  variable ftemp equal v_temp

  # Electrostatic relaxation
  fix swp swpFe atom/swap 1 1 ${rand} ${temp} ke no types 6 7
  fix swp swpFe atom/swap 1 1 1866513 ${temp} ke no types 6 7
  fix swp swpFe atom/swap 1 1 1866513 4 ke no types 6 7
  thermo 100
  thermo_style custom step v_ftemp pe f_swp[1] f_swp[2]
  run ${nsteps}
  run 972
WARNING: No fixes with time integration, atoms won't move (../verlet.cpp:60)
PPPM initialization ...
  using 12-bit tables for long-range coulomb (../kspace.cpp:340)
  G vector (1/distance) = 0.29499882
  grid = 45 45 250
  stencil order = 5
  estimated absolute RMS force accuracy = 0.00038505019
  estimated relative force accuracy = 1.1595672e-06
  using double precision KISS FFT
  3d grid and FFT values/proc = 554040 378675
  generated 45 of 45 mixed pair_coeff terms from arithmetic mixing rule
Per MPI rank memory allocation (min/avg/max) = 24.36 | 35.12 | 63.74 Mbytes
Step v_ftemp PotEng f_swp[1] f_swp[2] 
   80676            4   -792525.59            0            0 
   80700            4   -792525.59           24            0 
   80800            4   -792525.59          124            0 
   80900            4   -792525.59          224            0 
   81000            4   -792525.59          324            0 
   81100            4   -792525.59          424            0 
   81200            4   -792525.59          524            0 
   81300            4   -792525.59          624            0 
   81400            4   -792525.59          724            0 
   81500            4   -792525.59          824            0 
   81600            4   -792525.59          924            0 
   81648            4   -792525.59          972            0 
Loop time of 269.019 on 4 procs for 972 steps with 4356 atoms

Performance: 0.156 ns/day, 153.760 hours/ns, 3.613 timesteps/s
94.2% CPU use with 4 MPI tasks x no OpenMP threads

MPI task timing breakdown:
Section |  min time  |  avg time  |  max time  |%varavg| %total
---------------------------------------------------------------
Pair    | 3.1534     | 7.5483     | 11.25      | 123.6 |  2.81
Bond    | 0.0019453  | 0.0045842  | 0.012329   |   6.6 |  0.00
Kspace  | 63.763     | 67.466     | 71.859     |  41.4 | 25.08
Neigh   | 16.964     | 16.989     | 17.026     |   0.6 |  6.32
Comm    | 0.41053    | 0.45956    | 0.48928    |   4.7 |  0.17
Output  | 0.00025183 | 0.00062775 | 0.0015724  |   0.0 |  0.00
Modify  | 176.51     | 176.53     | 176.54     |   0.1 | 65.62
Other   |            | 0.02548    |            |       |  0.01

Nlocal:           1089 ave        1494 max         702 min
Histogram: 2 0 0 0 0 0 0 0 1 1
Nghost:           9053 ave       12006 max        5884 min
Histogram: 2 0 0 0 0 0 0 0 0 2
Neighs:         542692 ave      798273 max      221438 min
Histogram: 1 0 1 0 0 0 0 0 0 2

Total # of neighbors = 2170766
Ave neighs/atom = 498.3393
Ave special neighs/atom = 0.05785124
Neighbor list builds = 1944
Dangerous builds = 0

  unfix swp
  thermo_style custom step temp pe

next temp
jump SELF minimize_temp

  variable ftemp equal v_temp

  # Electrostatic relaxation
  fix swp swpFe atom/swap 1 1 ${rand} ${temp} ke no types 6 7
  fix swp swpFe atom/swap 1 1 2979469 ${temp} ke no types 6 7
  fix swp swpFe atom/swap 1 1 2979469 3 ke no types 6 7
  thermo 100
  thermo_style custom step v_ftemp pe f_swp[1] f_swp[2]
  run ${nsteps}
  run 972
WARNING: No fixes with time integration, atoms won't move (../verlet.cpp:60)
PPPM initialization ...
  using 12-bit tables for long-range coulomb (../kspace.cpp:340)
  G vector (1/distance) = 0.29499882
  grid = 45 45 250
  stencil order = 5
  estimated absolute RMS force accuracy = 0.00038505019
  estimated relative force accuracy = 1.1595672e-06
  using double precision KISS FFT
  3d grid and FFT values/proc = 554040 378675
  generated 45 of 45 mixed pair_coeff terms from arithmetic mixing rule
Per MPI rank memory allocation (min/avg/max) = 24.36 | 35.12 | 63.74 Mbytes
Step v_ftemp PotEng f_swp[1] f_swp[2] 
   81648            3   -792525.59            0            0 
   81700            3   -792525.59           52            0 
   81800            3   -792525.59          152            0 
   81900            3   -792525.59          252            0 
   82000            3   -792525.59          352            0 
   82100            3   -792525.59          452            0 
   82200            3   -792525.59          552            0 
   82300            3   -792525.59          652            0 
   82400            3   -792525.59          752            0 
   82500            3   -792525.59          852            0 
   82600            3   -792525.59          952            0 
   82620            3   -792525.59          972            0 
Loop time of 268.771 on 4 procs for 972 steps with 4356 atoms

Performance: 0.156 ns/day, 153.618 hours/ns, 3.616 timesteps/s
94.2% CPU use with 4 MPI tasks x no OpenMP threads

MPI task timing breakdown:
Section |  min time  |  avg time  |  max time  |%varavg| %total
---------------------------------------------------------------
Pair    | 3.1372     | 7.5168     | 11.148     | 123.1 |  2.80
Bond    | 0.001903   | 0.0044744  | 0.011779   |   6.3 |  0.00
Kspace  | 63.747     | 67.38      | 71.759     |  41.1 | 25.07
Neigh   | 16.834     | 16.859     | 16.895     |   0.6 |  6.27
Comm    | 0.41713    | 0.46502    | 0.49342    |   4.6 |  0.17
Output  | 0.0002085  | 0.00046587 | 0.0010954  |   0.0 |  0.00
Modify  | 176.51     | 176.52     | 176.53     |   0.1 | 65.68
Other   |            | 0.02453    |            |       |  0.01

Nlocal:           1089 ave        1494 max         702 min
Histogram: 2 0 0 0 0 0 0 0 1 1
Nghost:           9053 ave       12006 max        5884 min
Histogram: 2 0 0 0 0 0 0 0 0 2
Neighs:         542692 ave      798273 max      221438 min
Histogram: 1 0 1 0 0 0 0 0 0 2

Total # of neighbors = 2170766
Ave neighs/atom = 498.3393
Ave special neighs/atom = 0.05785124
Neighbor list builds = 1944
Dangerous builds = 0

  unfix swp
  thermo_style custom step temp pe

next temp
jump SELF minimize_temp

  variable ftemp equal v_temp

  # Electrostatic relaxation
  fix swp swpFe atom/swap 1 1 ${rand} ${temp} ke no types 6 7
  fix swp swpFe atom/swap 1 1 7974133 ${temp} ke no types 6 7
  fix swp swpFe atom/swap 1 1 7974133 2 ke no types 6 7
  thermo 100
  thermo_style custom step v_ftemp pe f_swp[1] f_swp[2]
  run ${nsteps}
  run 972
WARNING: No fixes with time integration, atoms won't move (../verlet.cpp:60)
PPPM initialization ...
  using 12-bit tables for long-range coulomb (../kspace.cpp:340)
  G vector (1/distance) = 0.29499882
  grid = 45 45 250
  stencil order = 5
  estimated absolute RMS force accuracy = 0.00038505019
  estimated relative force accuracy = 1.1595672e-06
  using double precision KISS FFT
  3d grid and FFT values/proc = 554040 378675
  generated 45 of 45 mixed pair_coeff terms from arithmetic mixing rule
Per MPI rank memory allocation (min/avg/max) = 24.36 | 35.12 | 63.74 Mbytes
Step v_ftemp PotEng f_swp[1] f_swp[2] 
   82620            2   -792525.59            0            0 
   82700            2   -792525.59           80            0 
   82800            2   -792525.59          180            0 
   82900            2   -792525.59          280            0 
   83000            2   -792525.59          380            0 
   83100            2   -792525.59          480            0 
   83200            2   -792525.59          580            0 
   83300            2   -792525.59          680            0 
   83400            2   -792525.59          780            0 
   83500            2   -792525.59          880            0 
   83592            2   -792525.59          972            0 
Loop time of 267.696 on 4 procs for 972 steps with 4356 atoms

Performance: 0.157 ns/day, 153.004 hours/ns, 3.631 timesteps/s
94.2% CPU use with 4 MPI tasks x no OpenMP threads

MPI task timing breakdown:
Section |  min time  |  avg time  |  max time  |%varavg| %total
---------------------------------------------------------------
Pair    | 3.1196     | 7.393      | 10.871     | 120.8 |  2.76
Bond    | 0.0014663  | 0.0040331  | 0.011388   |   6.7 |  0.00
Kspace  | 63.976     | 67.457     | 71.729     |  40.0 | 25.20
Neigh   | 17.024     | 17.052     | 17.095     |   0.7 |  6.37
Comm    | 0.47837    | 0.53684    | 0.57065    |   5.1 |  0.20
Output  | 0.0002012  | 0.00051046 | 0.0012653  |   0.0 |  0.00
Modify  | 175.21     | 175.23     | 175.24     |   0.1 | 65.46
Other   |            | 0.02645    |            |       |  0.01

Nlocal:           1089 ave        1494 max         702 min
Histogram: 2 0 0 0 0 0 0 0 1 1
Nghost:           9053 ave       12006 max        5884 min
Histogram: 2 0 0 0 0 0 0 0 0 2
Neighs:         542692 ave      798273 max      221438 min
Histogram: 1 0 1 0 0 0 0 0 0 2

Total # of neighbors = 2170766
Ave neighs/atom = 498.3393
Ave special neighs/atom = 0.05785124
Neighbor list builds = 1944
Dangerous builds = 0

  unfix swp
  thermo_style custom step temp pe

next temp
jump SELF minimize_temp

  variable ftemp equal v_temp

  # Electrostatic relaxation
  fix swp swpFe atom/swap 1 1 ${rand} ${temp} ke no types 6 7
  fix swp swpFe atom/swap 1 1 9540448 ${temp} ke no types 6 7
  fix swp swpFe atom/swap 1 1 9540448 1 ke no types 6 7
  thermo 100
  thermo_style custom step v_ftemp pe f_swp[1] f_swp[2]
  run ${nsteps}
  run 972
WARNING: No fixes with time integration, atoms won't move (../verlet.cpp:60)
PPPM initialization ...
  using 12-bit tables for long-range coulomb (../kspace.cpp:340)
  G vector (1/distance) = 0.29499882
  grid = 45 45 250
  stencil order = 5
  estimated absolute RMS force accuracy = 0.00038505019
  estimated relative force accuracy = 1.1595672e-06
  using double precision KISS FFT
  3d grid and FFT values/proc = 554040 378675
  generated 45 of 45 mixed pair_coeff terms from arithmetic mixing rule
Per MPI rank memory allocation (min/avg/max) = 24.36 | 35.12 | 63.74 Mbytes
Step v_ftemp PotEng f_swp[1] f_swp[2] 
   83592            1   -792525.59            0            0 
   83600            1   -792525.59            8            0 
   83700            1   -792525.59          108            0 
   83800            1   -792525.59          208            0 
   83900            1   -792525.59          308            0 
   84000            1   -792525.59          408            0 
   84100            1   -792525.59          508            0 
   84200            1   -792525.59          608            0 
   84300            1   -792525.59          708            0 
   84400            1   -792525.59          808            0 
   84500            1   -792525.59          908            0 
   84564            1   -792525.59          972            0 
Loop time of 265.751 on 4 procs for 972 steps with 4356 atoms

Performance: 0.158 ns/day, 151.893 hours/ns, 3.658 timesteps/s
94.3% CPU use with 4 MPI tasks x no OpenMP threads

MPI task timing breakdown:
Section |  min time  |  avg time  |  max time  |%varavg| %total
---------------------------------------------------------------
Pair    | 3.1893     | 7.5069     | 11.113     | 121.6 |  2.82
Bond    | 0.0017215  | 0.0045413  | 0.012423   |   6.8 |  0.00
Kspace  | 62.52      | 66.127     | 70.442     |  41.0 | 24.88
Neigh   | 16.873     | 16.899     | 16.938     |   0.6 |  6.36
Comm    | 0.4427     | 0.49419    | 0.52428    |   4.8 |  0.19
Output  | 0.00023918 | 0.00051238 | 0.0011394  |   0.0 |  0.00
Modify  | 174.68     | 174.69     | 174.7      |   0.1 | 65.73
Other   |            | 0.02848    |            |       |  0.01

Nlocal:           1089 ave        1494 max         702 min
Histogram: 2 0 0 0 0 0 0 0 1 1
Nghost:           9053 ave       12006 max        5884 min
Histogram: 2 0 0 0 0 0 0 0 0 2
Neighs:         542692 ave      798273 max      221438 min
Histogram: 1 0 1 0 0 0 0 0 0 2

Total # of neighbors = 2170766
Ave neighs/atom = 498.3393
Ave special neighs/atom = 0.05785124
Neighbor list builds = 1944
Dangerous builds = 0

  unfix swp
  thermo_style custom step temp pe

next temp
jump SELF minimize_temp

write_data 001-dbt_3x3_${layer}L_${type}_lqeq.data
write_data 001-dbt_3x3_21L_${type}_lqeq.data
write_data 001-dbt_3x3_21L_fa_tet_full_qeq_lqeq.data
System init for write_data ...
PPPM initialization ...
  using 12-bit tables for long-range coulomb (../kspace.cpp:340)
  G vector (1/distance) = 0.29499882
  grid = 45 45 250
  stencil order = 5
  estimated absolute RMS force accuracy = 0.00038505019
  estimated relative force accuracy = 1.1595672e-06
  using double precision KISS FFT
  3d grid and FFT values/proc = 554040 378675
  generated 45 of 45 mixed pair_coeff terms from arithmetic mixing rule

# Full minimization
minimize 1.0e-6 1.0e-9 1000 10000
PPPM initialization ...
  using 12-bit tables for long-range coulomb (../kspace.cpp:340)
  G vector (1/distance) = 0.29499882
  grid = 45 45 250
  stencil order = 5
  estimated absolute RMS force accuracy = 0.00038505019
  estimated relative force accuracy = 1.1595672e-06
  using double precision KISS FFT
  3d grid and FFT values/proc = 554040 378675
  generated 45 of 45 mixed pair_coeff terms from arithmetic mixing rule
Per MPI rank memory allocation (min/avg/max) = 25.48 | 36.25 | 64.86 Mbytes
Step Temp PotEng 
   84564            0   -792525.59 
   84600            0   -809368.07 
   84700            0   -810203.05 
   84759            0    -810432.3 
Loop time of 20.6332 on 4 procs for 195 steps with 4356 atoms

94.7% CPU use with 4 MPI tasks x no OpenMP threads

Minimization stats:
  Stopping criterion = energy tolerance
  Energy initial, next-to-last, final = 
      -792525.59435546  -810431.711281816  -810432.303263806
  Force two-norm initial, final = 4877.8015 32.850459
  Force max component initial, final = 174.31537 6.5920424
  Final line search alpha, max atom move = 0.0050136344 0.033050091
  Iterations, force evaluations = 195 383

MPI task timing breakdown:
Section |  min time  |  avg time  |  max time  |%varavg| %total
---------------------------------------------------------------
Pair    | 1.6425     | 3.7934     | 5.5466     |  84.1 | 18.38
Bond    | 0.0003658  | 0.0013771  | 0.0042215  |   4.4 |  0.01
Kspace  | 14.889     | 16.642     | 18.792     |  40.1 | 80.66
Neigh   | 0.12195    | 0.1221     | 0.1223     |   0.0 |  0.59
Comm    | 0.052838   | 0.056055   | 0.059193   |   1.1 |  0.27
Output  | 3.6947e-05 | 4.1921e-05 | 5.6345e-05 |   0.0 |  0.00
Modify  | 0          | 0          | 0          |   0.0 |  0.00
Other   |            | 0.01795    |            |       |  0.09

Nlocal:           1089 ave        1487 max         702 min
Histogram: 2 0 0 0 0 0 0 0 1 1
Nghost:        8974.75 ave       11937 max        5802 min
Histogram: 1 1 0 0 0 0 0 0 0 2
Neighs:         537614 ave      779454 max      220753 min
Histogram: 1 0 0 1 0 0 0 0 0 2

Total # of neighbors = 2150458
Ave neighs/atom = 493.67723
Ave special neighs/atom = 0.05785124
Neighbor list builds = 8
Dangerous builds = 0

write_data 001-dbt_3x3_${layer}L_${type}_lqeq_min.data
write_data 001-dbt_3x3_21L_${type}_lqeq_min.data
write_data 001-dbt_3x3_21L_fa_tet_full_qeq_lqeq_min.data
System init for write_data ...
PPPM initialization ...
  using 12-bit tables for long-range coulomb (../kspace.cpp:340)
  G vector (1/distance) = 0.29499882
  grid = 45 45 250
  stencil order = 5
  estimated absolute RMS force accuracy = 0.00038505019
  estimated relative force accuracy = 1.1595672e-06
  using double precision KISS FFT
  3d grid and FFT values/proc = 554040 378675
  generated 45 of 45 mixed pair_coeff terms from arithmetic mixing rule
Total wall time: 6:28:00
