LAMMPS (17 Feb 2022)
variable layer index 21
variable type string fa_tet_half_qeq
variable rand equal round(random(0,1e7,452345))
variable temp index 50000 45000 40500 36450 32805 29524 26571 23913 21521 19368 17431 15687 14118 12706 11435 10291 9261 8334 7500 6750 6075 5467 4920 4428 3985 3586 3227 2904 2613 2351 2115 1903 1712 1540 1386 1247 1122 1009 908 817 735 661 594 534 480 432 388 349 314 282 253 227 204 183 164 147 132 118 106 95 85 76 68 61 54 48 43 38 34 30 27 24 21 18 16 14 12 10 9 8 7 6 5 4 3 2 1

variable nsteps equal 972  # (nfe*nfe)/4

include settings.lmp
units              real
atom_style         full
timestep	   0.5
boundary	   p p f

pair_style         lj/cut/coul/long 12.0
bond_style         harmonic
angle_style        harmonic
dihedral_style     fourier
improper_style     cvff
kspace_style       pppm 1.0e-6
kspace_modify      slab 3.0

pair_modify        mix arithmetic
special_bonds      amber
neighbor           2.0 bin
neigh_modify       every 1 delay 0 check yes

read_data 001-dbt_3x3_${layer}L_${type}.data
read_data 001-dbt_3x3_21L_${type}.data
read_data 001-dbt_3x3_21L_fa_tet_half_qeq.data
Reading data file ...
  orthogonal box = (0 0 -64.778423) to (25.44 25.44 32.908)
  1 by 1 by 4 MPI processor grid
  reading atoms ...
  4311 atoms
  reading velocities ...
  4311 velocities
  scanning bonds ...
  3 = max bonds/atom
  scanning angles ...
  3 = max angles/atom
  scanning impropers ...
  1 = max impropers/atom
  reading bonds ...
  36 bonds
  reading angles ...
  54 angles
  reading impropers ...
  9 impropers
Finding 1-2 1-3 1-4 neighbors ...
  special bond factors lj:    0        0        0.5     
  special bond factors coul:  0        0        0.8333333333333334
     3 = max # of 1-2 neighbors
     2 = max # of 1-3 neighbors
     2 = max # of 1-4 neighbors
     3 = max # of special neighbors
  special bonds CPU = 0.000 seconds
  read_data CPU = 0.013 seconds

include ff_formic_acid_fe304.param
#####################-----formic_acid-----######################################

mass  1   12.011   # Sp2 C carbonyl group
mass  2    1.008   # H bonded to non-sp3 carbon with 2 electrwd. group
mass  3   15.9994  # Oxygen with one connected atom
mass  4   15.9994  # Oxygen in hydroxyl group
mass  5    1.008   # Hydroxyl group

pair_coeff  1  1   0.0988  3.31521230994  # c
pair_coeff  2  2   0.0161  2.44729877873  # h5
pair_coeff  3  3   0.1463  3.04812087425  # o
pair_coeff  4  4   0.0930  3.24287133403  # oh
pair_coeff  5  5   0.0047  0.537924646013 # ho

bond_coeff  1  361.80  1.105  # c-h5
bond_coeff  2  652.57  1.218  # c=o
bond_coeff  3  383.13  1.351  # c-oh
bond_coeff  4  563.51  0.973  # o-h

angle_coeff  1   51.617  106.550  # c-oh-ho
angle_coeff  2   65.930  123.650  # h5-c=o
angle_coeff  3   65.262  109.490  # h5-c-oh
angle_coeff  4  115.745  122.100  # o=c-oh

dihedral_coeff  1  1  2.3  2  180.0               # h5-c-oh-ho
dihedral_coeff  2  2  2.3  2  180.0  1.9  1  0.0  # o=c-oh-ho

                              #  h5
                              #  |
improper_coeff  1  10.5 -1 2  #  c
                              # / \
                              # o  oh

#####################-----formate-----###########################################

angle_coeff  5   118.817 130.250  # o-c-o

                              #  h5
                              #  |
improper_coeff  2  10.5 -1 2  #  c
                              # / \
                              # o  o

#####################-----magnetite-----#########################################

mass  6   55.845   # Iron(II)
mass  7   55.845   # Iron(III)
mass  8   15.9994  # Bridging oxygen
mass  9   15.9994  # Hydroxyl oxygen
mass  10   1.008   # Hydroxyl hydrogen

pair_coeff  6  6   9.0298e-07  4.90620  # fe2
pair_coeff  7  7   9.0298e-07  4.90620  # fe3
pair_coeff  8  8   0.1554      3.16554  # ob
pair_coeff  9  9   0.1554      3.16554  # oh
pair_coeff  10 10  0.0         0.0      # ho

bond_coeff  5  554.1349  1.0   # oh-ho
bond_coeff  6    0.0     2.08  # fe-oh (dummy bond)

angle_coeff  6   30.0  109.470  # fe-oh-ho

##################################################################################

group Felayer molecule 101 100 102
324 atoms in group Felayer
group Fe type 6 7
1818 atoms in group Fe
group swpFe intersect Fe Felayer
108 atoms in group swpFe

label minimize_temp

  variable ftemp equal v_temp

  # Electrostatic relaxation
  fix swp swpFe atom/swap 1 1 ${rand} ${temp} ke no types 6 7
  fix swp swpFe atom/swap 1 1 855824 ${temp} ke no types 6 7
  fix swp swpFe atom/swap 1 1 855824 50000 ke no types 6 7
  thermo 100
  thermo_style custom step v_ftemp pe f_swp[1] f_swp[2]
  run ${nsteps}
  run 972
WARNING: No fixes with time integration, atoms won't move (../verlet.cpp:60)
PPPM initialization ...
  using 12-bit tables for long-range coulomb (../kspace.cpp:340)
  G vector (1/distance) = 0.29499995
  grid = 45 45 250
  stencil order = 5
  estimated absolute RMS force accuracy = 0.00038527262
  estimated relative force accuracy = 1.160237e-06
  using double precision KISS FFT
  3d grid and FFT values/proc = 554040 378675
  generated 45 of 45 mixed pair_coeff terms from arithmetic mixing rule
Neighbor list info ...
  update every 1 steps, delay 0 steps, check yes
  max neighbors/atom: 2000, page size: 100000
  master list distance cutoff = 14
  ghost atom cutoff = 14
  binsize = 7, bins = 4 4 14
  1 neighbor lists, perpetual/occasional/extra = 1 0 0
  (1) pair lj/cut/coul/long, perpetual
      attributes: half, newton on
      pair build: half/bin/newton
      stencil: half/bin/3d
      bin: standard
Per MPI rank memory allocation (min/avg/max) = 24.35 | 35.11 | 63.71 Mbytes
Step v_ftemp PotEng f_swp[1] f_swp[2] 
       0        50000   -784833.53            0            0 
     100        50000      -785723          100           71 
     200        50000    -785526.3          200          141 
     300        50000   -785131.67          300          203 
     400        50000   -785873.59          400          263 
     500        50000   -785342.47          500          326 
     600        50000   -784980.72          600          389 
     700        50000   -785298.59          700          453 
     800        50000   -785050.84          800          523 
     900        50000   -785438.29          900          586 
     972        50000   -785572.88          972          633 
Loop time of 248.785 on 4 procs for 972 steps with 4311 atoms

Performance: 0.169 ns/day, 142.195 hours/ns, 3.907 timesteps/s
91.9% CPU use with 4 MPI tasks x no OpenMP threads

MPI task timing breakdown:
Section |  min time  |  avg time  |  max time  |%varavg| %total
---------------------------------------------------------------
Pair    | 2.8305     | 7.1347     | 10.45      | 121.7 |  2.87
Bond    | 0.0013113  | 0.00285    | 0.0072725  |   4.8 |  0.00
Kspace  | 57.877     | 61.168     | 65.513     |  41.7 | 24.59
Neigh   | 16.764     | 16.804     | 16.861     |   0.9 |  6.75
Comm    | 0.48739    | 0.54464    | 0.59947    |   6.4 |  0.22
Output  | 0.00018938 | 0.0004018  | 0.00087647 |   0.0 |  0.00
Modify  | 163.08     | 163.11     | 163.14     |   0.2 | 65.56
Other   |            | 0.02539    |            |       |  0.01

Nlocal:        1077.75 ave        1494 max         657 min
Histogram: 1 1 0 0 0 0 0 0 1 1
Nghost:        8908.25 ave       11934 max        5689 min
Histogram: 1 1 0 0 0 0 0 0 0 2
Neighs:         536710 ave      798273 max      198736 min
Histogram: 1 0 0 1 0 0 0 0 0 2

Total # of neighbors = 2146840
Ave neighs/atom = 497.99119
Ave special neighs/atom = 0.029227557
Neighbor list builds = 1944
Dangerous builds = 0

  unfix swp
  thermo_style custom step temp pe

next temp
jump SELF minimize_temp

  variable ftemp equal v_temp

  # Electrostatic relaxation
  fix swp swpFe atom/swap 1 1 ${rand} ${temp} ke no types 6 7
  fix swp swpFe atom/swap 1 1 710414 ${temp} ke no types 6 7
  fix swp swpFe atom/swap 1 1 710414 45000 ke no types 6 7
  thermo 100
  thermo_style custom step v_ftemp pe f_swp[1] f_swp[2]
  run ${nsteps}
  run 972
WARNING: No fixes with time integration, atoms won't move (../verlet.cpp:60)
PPPM initialization ...
  using 12-bit tables for long-range coulomb (../kspace.cpp:340)
  G vector (1/distance) = 0.29499995
  grid = 45 45 250
  stencil order = 5
  estimated absolute RMS force accuracy = 0.00038527262
  estimated relative force accuracy = 1.160237e-06
  using double precision KISS FFT
  3d grid and FFT values/proc = 554040 378675
  generated 45 of 45 mixed pair_coeff terms from arithmetic mixing rule
Per MPI rank memory allocation (min/avg/max) = 24.35 | 35.11 | 63.71 Mbytes
Step v_ftemp PotEng f_swp[1] f_swp[2] 
     972        45000   -785572.88            0            0 
    1000        45000   -785888.71           28           14 
    1100        45000   -785672.12          128           75 
    1200        45000   -785606.54          228          133 
    1300        45000   -785429.97          328          202 
    1400        45000   -785958.45          428          259 
    1500        45000    -786118.6          528          322 
    1600        45000   -785857.45          628          394 
    1700        45000   -785175.49          728          459 
    1800        45000   -785892.12          828          520 
    1900        45000   -785337.64          928          578 
    1944        45000   -785395.39          972          606 
Loop time of 272.428 on 4 procs for 972 steps with 4311 atoms

Performance: 0.154 ns/day, 155.709 hours/ns, 3.568 timesteps/s
93.9% CPU use with 4 MPI tasks x no OpenMP threads

MPI task timing breakdown:
Section |  min time  |  avg time  |  max time  |%varavg| %total
---------------------------------------------------------------
Pair    | 2.8987     | 7.6188     | 11.27      | 128.8 |  2.80
Bond    | 0.0018894  | 0.0037954  | 0.008797   |   4.7 |  0.00
Kspace  | 64.636     | 68.291     | 73.014     |  43.1 | 25.07
Neigh   | 16.882     | 16.908     | 16.944     |   0.6 |  6.21
Comm    | 0.40123    | 0.45079    | 0.48579    |   5.2 |  0.17
Output  | 0.00021707 | 0.00057969 | 0.0013635  |   0.0 |  0.00
Modify  | 179.12     | 179.13     | 179.14     |   0.1 | 65.75
Other   |            | 0.02759    |            |       |  0.01

Nlocal:        1077.75 ave        1494 max         657 min
Histogram: 1 1 0 0 0 0 0 0 1 1
Nghost:        8908.25 ave       11934 max        5689 min
Histogram: 1 1 0 0 0 0 0 0 0 2
Neighs:         536710 ave      798273 max      198736 min
Histogram: 1 0 0 1 0 0 0 0 0 2

Total # of neighbors = 2146840
Ave neighs/atom = 497.99119
Ave special neighs/atom = 0.029227557
Neighbor list builds = 1944
Dangerous builds = 0

  unfix swp
  thermo_style custom step temp pe

next temp
jump SELF minimize_temp

  variable ftemp equal v_temp

  # Electrostatic relaxation
  fix swp swpFe atom/swap 1 1 ${rand} ${temp} ke no types 6 7
  fix swp swpFe atom/swap 1 1 755762 ${temp} ke no types 6 7
  fix swp swpFe atom/swap 1 1 755762 40500 ke no types 6 7
  thermo 100
  thermo_style custom step v_ftemp pe f_swp[1] f_swp[2]
  run ${nsteps}
  run 972
WARNING: No fixes with time integration, atoms won't move (../verlet.cpp:60)
PPPM initialization ...
  using 12-bit tables for long-range coulomb (../kspace.cpp:340)
  G vector (1/distance) = 0.29499995
  grid = 45 45 250
  stencil order = 5
  estimated absolute RMS force accuracy = 0.00038527262
  estimated relative force accuracy = 1.160237e-06
  using double precision KISS FFT
  3d grid and FFT values/proc = 554040 378675
  generated 45 of 45 mixed pair_coeff terms from arithmetic mixing rule
Per MPI rank memory allocation (min/avg/max) = 24.35 | 35.11 | 63.71 Mbytes
Step v_ftemp PotEng f_swp[1] f_swp[2] 
    1944        40500   -785395.39            0            0 
    2000        40500      -785682           56           37 
    2100        40500    -785600.5          156           88 
    2200        40500   -786078.94          256          148 
    2300        40500    -785729.3          356          207 
    2400        40500   -785825.31          456          269 
    2500        40500   -785848.06          556          313 
    2600        40500   -785813.88          656          372 
    2700        40500   -785864.74          756          435 
    2800        40500   -785342.74          856          493 
    2900        40500   -785318.88          956          555 
    2916        40500   -785484.17          972          565 
Loop time of 270.971 on 4 procs for 972 steps with 4311 atoms

Performance: 0.155 ns/day, 154.876 hours/ns, 3.587 timesteps/s
94.3% CPU use with 4 MPI tasks x no OpenMP threads

MPI task timing breakdown:
Section |  min time  |  avg time  |  max time  |%varavg| %total
---------------------------------------------------------------
Pair    | 2.9034     | 7.4325     | 10.993     | 124.8 |  2.74
Bond    | 0.0014817  | 0.003135   | 0.0078823  |   4.9 |  0.00
Kspace  | 63.618     | 67.182     | 71.712     |  41.6 | 24.79
Neigh   | 17.084     | 17.114     | 17.158     |   0.7 |  6.32
Comm    | 0.48347    | 0.54386    | 0.58298    |   5.5 |  0.20
Output  | 0.00022368 | 0.00053659 | 0.0012914  |   0.0 |  0.00
Modify  | 178.65     | 178.67     | 178.68     |   0.1 | 65.94
Other   |            | 0.02779    |            |       |  0.01

Nlocal:        1077.75 ave        1494 max         657 min
Histogram: 1 1 0 0 0 0 0 0 1 1
Nghost:        8908.25 ave       11934 max        5689 min
Histogram: 1 1 0 0 0 0 0 0 0 2
Neighs:         536710 ave      798273 max      198736 min
Histogram: 1 0 0 1 0 0 0 0 0 2

Total # of neighbors = 2146840
Ave neighs/atom = 497.99119
Ave special neighs/atom = 0.029227557
Neighbor list builds = 1944
Dangerous builds = 0

  unfix swp
  thermo_style custom step temp pe

next temp
jump SELF minimize_temp

  variable ftemp equal v_temp

  # Electrostatic relaxation
  fix swp swpFe atom/swap 1 1 ${rand} ${temp} ke no types 6 7
  fix swp swpFe atom/swap 1 1 4574249 ${temp} ke no types 6 7
  fix swp swpFe atom/swap 1 1 4574249 36450 ke no types 6 7
  thermo 100
  thermo_style custom step v_ftemp pe f_swp[1] f_swp[2]
  run ${nsteps}
  run 972
WARNING: No fixes with time integration, atoms won't move (../verlet.cpp:60)
PPPM initialization ...
  using 12-bit tables for long-range coulomb (../kspace.cpp:340)
  G vector (1/distance) = 0.29499995
  grid = 45 45 250
  stencil order = 5
  estimated absolute RMS force accuracy = 0.00038527262
  estimated relative force accuracy = 1.160237e-06
  using double precision KISS FFT
  3d grid and FFT values/proc = 554040 378675
  generated 45 of 45 mixed pair_coeff terms from arithmetic mixing rule
Per MPI rank memory allocation (min/avg/max) = 24.35 | 35.11 | 63.71 Mbytes
Step v_ftemp PotEng f_swp[1] f_swp[2] 
    2916        36450   -785484.17            0            0 
    3000        36450   -786165.17           84           48 
    3100        36450   -785531.97          184          103 
    3200        36450   -785530.25          284          157 
    3300        36450   -785557.72          384          217 
    3400        36450   -785396.14          484          271 
    3500        36450   -785955.02          584          331 
    3600        36450   -785783.41          684          390 
    3700        36450    -785814.3          784          445 
    3800        36450   -785214.12          884          505 
    3888        36450   -785857.17          972          554 
Loop time of 270.737 on 4 procs for 972 steps with 4311 atoms

Performance: 0.155 ns/day, 154.742 hours/ns, 3.590 timesteps/s
94.2% CPU use with 4 MPI tasks x no OpenMP threads

MPI task timing breakdown:
Section |  min time  |  avg time  |  max time  |%varavg| %total
---------------------------------------------------------------
Pair    | 2.851      | 7.4043     | 10.948     | 125.2 |  2.73
Bond    | 0.0014332  | 0.003056   | 0.0078499  |   5.0 |  0.00
Kspace  | 63.201     | 66.749     | 71.303     |  41.8 | 24.65
Neigh   | 17.063     | 17.092     | 17.136     |   0.7 |  6.31
Comm    | 0.49001    | 0.55121    | 0.59134    |   5.6 |  0.20
Output  | 0.00020118 | 0.00065365 | 0.0018502  |   0.0 |  0.00
Modify  | 178.9      | 178.91     | 178.93     |   0.1 | 66.08
Other   |            | 0.02806    |            |       |  0.01

Nlocal:        1077.75 ave        1494 max         657 min
Histogram: 1 1 0 0 0 0 0 0 1 1
Nghost:        8908.25 ave       11934 max        5689 min
Histogram: 1 1 0 0 0 0 0 0 0 2
Neighs:         536710 ave      798273 max      198736 min
Histogram: 1 0 0 1 0 0 0 0 0 2

Total # of neighbors = 2146840
Ave neighs/atom = 497.99119
Ave special neighs/atom = 0.029227557
Neighbor list builds = 1944
Dangerous builds = 0

  unfix swp
  thermo_style custom step temp pe

next temp
jump SELF minimize_temp

  variable ftemp equal v_temp

  # Electrostatic relaxation
  fix swp swpFe atom/swap 1 1 ${rand} ${temp} ke no types 6 7
  fix swp swpFe atom/swap 1 1 5979850 ${temp} ke no types 6 7
  fix swp swpFe atom/swap 1 1 5979850 32805 ke no types 6 7
  thermo 100
  thermo_style custom step v_ftemp pe f_swp[1] f_swp[2]
  run ${nsteps}
  run 972
WARNING: No fixes with time integration, atoms won't move (../verlet.cpp:60)
PPPM initialization ...
  using 12-bit tables for long-range coulomb (../kspace.cpp:340)
  G vector (1/distance) = 0.29499995
  grid = 45 45 250
  stencil order = 5
  estimated absolute RMS force accuracy = 0.00038527262
  estimated relative force accuracy = 1.160237e-06
  using double precision KISS FFT
  3d grid and FFT values/proc = 554040 378675
  generated 45 of 45 mixed pair_coeff terms from arithmetic mixing rule
Per MPI rank memory allocation (min/avg/max) = 24.35 | 35.11 | 63.71 Mbytes
Step v_ftemp PotEng f_swp[1] f_swp[2] 
    3888        32805   -785857.17            0            0 
    3900        32805      -785904           12            7 
    4000        32805   -785921.59          112           56 
    4100        32805    -786062.6          212          108 
    4200        32805   -785423.87          312          163 
    4300        32805   -785784.39          412          225 
    4400        32805   -785706.32          512          278 
    4500        32805   -785749.51          612          323 
    4600        32805   -786051.38          712          386 
    4700        32805   -786130.52          812          438 
    4800        32805   -785770.46          912          492 
    4860        32805   -785699.06          972          526 
Loop time of 270.636 on 4 procs for 972 steps with 4311 atoms

Performance: 0.155 ns/day, 154.685 hours/ns, 3.592 timesteps/s
93.9% CPU use with 4 MPI tasks x no OpenMP threads

MPI task timing breakdown:
Section |  min time  |  avg time  |  max time  |%varavg| %total
---------------------------------------------------------------
Pair    | 2.8748     | 7.4569     | 11.006     | 126.0 |  2.76
Bond    | 0.0016749  | 0.0032921  | 0.0079218  |   4.7 |  0.00
Kspace  | 63.875     | 67.426     | 72.01      |  41.9 | 24.91
Neigh   | 16.901     | 16.93      | 16.971     |   0.7 |  6.26
Comm    | 0.46254    | 0.51354    | 0.55114    |   5.1 |  0.19
Output  | 0.00025803 | 0.00068371 | 0.001552   |   0.0 |  0.00
Modify  | 178.27     | 178.28     | 178.29     |   0.1 | 65.87
Other   |            | 0.025      |            |       |  0.01

Nlocal:        1077.75 ave        1494 max         657 min
Histogram: 1 1 0 0 0 0 0 0 1 1
Nghost:        8908.25 ave       11934 max        5689 min
Histogram: 1 1 0 0 0 0 0 0 0 2
Neighs:         536710 ave      798273 max      198736 min
Histogram: 1 0 0 1 0 0 0 0 0 2

Total # of neighbors = 2146840
Ave neighs/atom = 497.99119
Ave special neighs/atom = 0.029227557
Neighbor list builds = 1944
Dangerous builds = 0

  unfix swp
  thermo_style custom step temp pe

next temp
jump SELF minimize_temp

  variable ftemp equal v_temp

  # Electrostatic relaxation
  fix swp swpFe atom/swap 1 1 ${rand} ${temp} ke no types 6 7
  fix swp swpFe atom/swap 1 1 2707118 ${temp} ke no types 6 7
  fix swp swpFe atom/swap 1 1 2707118 29524 ke no types 6 7
  thermo 100
  thermo_style custom step v_ftemp pe f_swp[1] f_swp[2]
  run ${nsteps}
  run 972
WARNING: No fixes with time integration, atoms won't move (../verlet.cpp:60)
PPPM initialization ...
  using 12-bit tables for long-range coulomb (../kspace.cpp:340)
  G vector (1/distance) = 0.29499995
  grid = 45 45 250
  stencil order = 5
  estimated absolute RMS force accuracy = 0.00038527262
  estimated relative force accuracy = 1.160237e-06
  using double precision KISS FFT
  3d grid and FFT values/proc = 554040 378675
  generated 45 of 45 mixed pair_coeff terms from arithmetic mixing rule
Per MPI rank memory allocation (min/avg/max) = 24.35 | 35.11 | 63.71 Mbytes
Step v_ftemp PotEng f_swp[1] f_swp[2] 
    4860        29524   -785699.06            0            0 
    4900        29524   -785690.97           40           19 
    5000        29524   -786021.02          140           67 
    5100        29524   -785704.04          240          117 
    5200        29524   -786065.13          340          159 
    5300        29524   -786047.97          440          209 
    5400        29524   -785840.09          540          260 
    5500        29524   -785809.45          640          315 
    5600        29524   -785731.89          740          368 
    5700        29524   -786346.06          840          414 
    5800        29524   -785952.34          940          468 
    5832        29524   -785857.93          972          487 
Loop time of 263.507 on 4 procs for 972 steps with 4311 atoms

Performance: 0.159 ns/day, 150.610 hours/ns, 3.689 timesteps/s
94.3% CPU use with 4 MPI tasks x no OpenMP threads

MPI task timing breakdown:
Section |  min time  |  avg time  |  max time  |%varavg| %total
---------------------------------------------------------------
Pair    | 2.8703     | 7.4259     | 10.96      | 125.0 |  2.82
Bond    | 0.0013674  | 0.0029647  | 0.0075548  |   4.9 |  0.00
Kspace  | 60.524     | 64.062     | 68.618     |  42.6 | 24.31
Neigh   | 17.153     | 17.182     | 17.224     |   0.7 |  6.52
Comm    | 0.48561    | 0.54596    | 0.58381    |   5.5 |  0.21
Output  | 0.00024736 | 0.00060102 | 0.0014718  |   0.0 |  0.00
Modify  | 174.25     | 174.26     | 174.28     |   0.1 | 66.13
Other   |            | 0.02671    |            |       |  0.01

Nlocal:        1077.75 ave        1494 max         657 min
Histogram: 1 1 0 0 0 0 0 0 1 1
Nghost:        8908.25 ave       11934 max        5689 min
Histogram: 1 1 0 0 0 0 0 0 0 2
Neighs:         536710 ave      798273 max      198736 min
Histogram: 1 0 0 1 0 0 0 0 0 2

Total # of neighbors = 2146840
Ave neighs/atom = 497.99119
Ave special neighs/atom = 0.029227557
Neighbor list builds = 1944
Dangerous builds = 0

  unfix swp
  thermo_style custom step temp pe

next temp
jump SELF minimize_temp

  variable ftemp equal v_temp

  # Electrostatic relaxation
  fix swp swpFe atom/swap 1 1 ${rand} ${temp} ke no types 6 7
  fix swp swpFe atom/swap 1 1 1165944 ${temp} ke no types 6 7
  fix swp swpFe atom/swap 1 1 1165944 26571 ke no types 6 7
  thermo 100
  thermo_style custom step v_ftemp pe f_swp[1] f_swp[2]
  run ${nsteps}
  run 972
WARNING: No fixes with time integration, atoms won't move (../verlet.cpp:60)
PPPM initialization ...
  using 12-bit tables for long-range coulomb (../kspace.cpp:340)
  G vector (1/distance) = 0.29499995
  grid = 45 45 250
  stencil order = 5
  estimated absolute RMS force accuracy = 0.00038527262
  estimated relative force accuracy = 1.160237e-06
  using double precision KISS FFT
  3d grid and FFT values/proc = 554040 378675
  generated 45 of 45 mixed pair_coeff terms from arithmetic mixing rule
Per MPI rank memory allocation (min/avg/max) = 24.35 | 35.11 | 63.71 Mbytes
Step v_ftemp PotEng f_swp[1] f_swp[2] 
    5832        26571   -785857.93            0            0 
    5900        26571   -786433.89           68           33 
    6000        26571    -785703.6          168           85 
    6100        26571   -786182.12          268          131 
    6200        26571   -786050.23          368          172 
    6300        26571   -785667.98          468          227 
    6400        26571   -786130.22          568          283 
    6500        26571   -786495.83          668          322 
    6600        26571   -785810.94          768          371 
    6700        26571   -786023.56          868          416 
    6800        26571    -786249.1          968          460 
    6804        26571   -786108.34          972          464 
Loop time of 267.543 on 4 procs for 972 steps with 4311 atoms

Performance: 0.157 ns/day, 152.916 hours/ns, 3.633 timesteps/s
93.9% CPU use with 4 MPI tasks x no OpenMP threads

MPI task timing breakdown:
Section |  min time  |  avg time  |  max time  |%varavg| %total
---------------------------------------------------------------
Pair    | 2.9599     | 7.561      | 11.162     | 126.0 |  2.83
Bond    | 0.0018958  | 0.0036224  | 0.0084767  |   4.7 |  0.00
Kspace  | 63.715     | 67.318     | 71.919     |  42.2 | 25.16
Neigh   | 16.902     | 16.927     | 16.962     |   0.6 |  6.33
Comm    | 0.43752    | 0.48184    | 0.51767    |   4.8 |  0.18
Output  | 0.00021128 | 0.00056586 | 0.001456   |   0.0 |  0.00
Modify  | 175.21     | 175.23     | 175.24     |   0.1 | 65.49
Other   |            | 0.02624    |            |       |  0.01

Nlocal:        1077.75 ave        1494 max         657 min
Histogram: 1 1 0 0 0 0 0 0 1 1
Nghost:        8908.25 ave       11934 max        5689 min
Histogram: 1 1 0 0 0 0 0 0 0 2
Neighs:         536710 ave      798273 max      198736 min
Histogram: 1 0 0 1 0 0 0 0 0 2

Total # of neighbors = 2146840
Ave neighs/atom = 497.99119
Ave special neighs/atom = 0.029227557
Neighbor list builds = 1944
Dangerous builds = 0

  unfix swp
  thermo_style custom step temp pe

next temp
jump SELF minimize_temp

  variable ftemp equal v_temp

  # Electrostatic relaxation
  fix swp swpFe atom/swap 1 1 ${rand} ${temp} ke no types 6 7
  fix swp swpFe atom/swap 1 1 3631288 ${temp} ke no types 6 7
  fix swp swpFe atom/swap 1 1 3631288 23913 ke no types 6 7
  thermo 100
  thermo_style custom step v_ftemp pe f_swp[1] f_swp[2]
  run ${nsteps}
  run 972
WARNING: No fixes with time integration, atoms won't move (../verlet.cpp:60)
PPPM initialization ...
  using 12-bit tables for long-range coulomb (../kspace.cpp:340)
  G vector (1/distance) = 0.29499995
  grid = 45 45 250
  stencil order = 5
  estimated absolute RMS force accuracy = 0.00038527262
  estimated relative force accuracy = 1.160237e-06
  using double precision KISS FFT
  3d grid and FFT values/proc = 554040 378675
  generated 45 of 45 mixed pair_coeff terms from arithmetic mixing rule
Per MPI rank memory allocation (min/avg/max) = 24.35 | 35.11 | 63.71 Mbytes
Step v_ftemp PotEng f_swp[1] f_swp[2] 
    6804        23913   -786108.34            0            0 
    6900        23913   -786072.05           96           50 
    7000        23913   -785965.66          196           94 
    7100        23913   -785707.81          296          145 
    7200        23913   -786152.79          396          190 
    7300        23913   -786368.16          496          235 
    7400        23913    -786226.4          596          275 
    7500        23913   -786228.39          696          320 
    7600        23913   -786286.77          796          366 
    7700        23913   -786314.16          896          406 
    7776        23913    -786315.2          972          428 
Loop time of 269.376 on 4 procs for 972 steps with 4311 atoms

Performance: 0.156 ns/day, 153.964 hours/ns, 3.608 timesteps/s
93.9% CPU use with 4 MPI tasks x no OpenMP threads

MPI task timing breakdown:
Section |  min time  |  avg time  |  max time  |%varavg| %total
---------------------------------------------------------------
Pair    | 2.8839     | 7.4882     | 11.055     | 126.5 |  2.78
Bond    | 0.0018141  | 0.0034863  | 0.0079098  |   4.3 |  0.00
Kspace  | 64.417     | 67.987     | 72.592     |  42.0 | 25.24
Neigh   | 16.85      | 16.874     | 16.91      |   0.6 |  6.26
Comm    | 0.40618    | 0.45099    | 0.48085    |   4.7 |  0.17
Output  | 0.00018922 | 0.00049804 | 0.0012912  |   0.0 |  0.00
Modify  | 176.54     | 176.55     | 176.56     |   0.1 | 65.54
Other   |            | 0.02306    |            |       |  0.01

Nlocal:        1077.75 ave        1494 max         657 min
Histogram: 1 1 0 0 0 0 0 0 1 1
Nghost:        8908.25 ave       11934 max        5689 min
Histogram: 1 1 0 0 0 0 0 0 0 2
Neighs:         536710 ave      798273 max      198736 min
Histogram: 1 0 0 1 0 0 0 0 0 2

Total # of neighbors = 2146840
Ave neighs/atom = 497.99119
Ave special neighs/atom = 0.029227557
Neighbor list builds = 1944
Dangerous builds = 0

  unfix swp
  thermo_style custom step temp pe

next temp
jump SELF minimize_temp

  variable ftemp equal v_temp

  # Electrostatic relaxation
  fix swp swpFe atom/swap 1 1 ${rand} ${temp} ke no types 6 7
  fix swp swpFe atom/swap 1 1 7952271 ${temp} ke no types 6 7
  fix swp swpFe atom/swap 1 1 7952271 21521 ke no types 6 7
  thermo 100
  thermo_style custom step v_ftemp pe f_swp[1] f_swp[2]
  run ${nsteps}
  run 972
WARNING: No fixes with time integration, atoms won't move (../verlet.cpp:60)
PPPM initialization ...
  using 12-bit tables for long-range coulomb (../kspace.cpp:340)
  G vector (1/distance) = 0.29499995
  grid = 45 45 250
  stencil order = 5
  estimated absolute RMS force accuracy = 0.00038527262
  estimated relative force accuracy = 1.160237e-06
  using double precision KISS FFT
  3d grid and FFT values/proc = 554040 378675
  generated 45 of 45 mixed pair_coeff terms from arithmetic mixing rule
Per MPI rank memory allocation (min/avg/max) = 24.35 | 35.11 | 63.71 Mbytes
Step v_ftemp PotEng f_swp[1] f_swp[2] 
    7776        21521    -786315.2            0            0 
    7800        21521   -786101.66           24           13 
    7900        21521   -786135.23          124           51 
    8000        21521   -786369.23          224           92 
    8100        21521   -786250.56          324          133 
    8200        21521   -786506.96          424          179 
    8300        21521   -786210.93          524          215 
    8400        21521   -786141.55          624          254 
    8500        21521   -786177.13          724          289 
    8600        21521   -785815.63          824          329 
    8700        21521   -786259.42          924          368 
    8748        21521   -786439.04          972          396 
Loop time of 269.321 on 4 procs for 972 steps with 4311 atoms

Performance: 0.156 ns/day, 153.933 hours/ns, 3.609 timesteps/s
94.1% CPU use with 4 MPI tasks x no OpenMP threads

MPI task timing breakdown:
Section |  min time  |  avg time  |  max time  |%varavg| %total
---------------------------------------------------------------
Pair    | 2.8257     | 7.3708     | 10.938     | 125.2 |  2.74
Bond    | 0.0013266  | 0.0028842  | 0.0070296  |   4.5 |  0.00
Kspace  | 64.68      | 68.25      | 72.797     |  41.2 | 25.34
Neigh   | 17.17      | 17.198     | 17.239     |   0.7 |  6.39
Comm    | 0.47411    | 0.52866    | 0.56512    |   5.2 |  0.20
Output  | 0.00028794 | 0.00072178 | 0.001784   |   0.0 |  0.00
Modify  | 175.93     | 175.95     | 175.96     |   0.1 | 65.33
Other   |            | 0.02455    |            |       |  0.01

Nlocal:        1077.75 ave        1494 max         657 min
Histogram: 1 1 0 0 0 0 0 0 1 1
Nghost:        8908.25 ave       11934 max        5689 min
Histogram: 1 1 0 0 0 0 0 0 0 2
Neighs:         536710 ave      798273 max      198736 min
Histogram: 1 0 0 1 0 0 0 0 0 2

Total # of neighbors = 2146840
Ave neighs/atom = 497.99119
Ave special neighs/atom = 0.029227557
Neighbor list builds = 1944
Dangerous builds = 0

  unfix swp
  thermo_style custom step temp pe

next temp
jump SELF minimize_temp

  variable ftemp equal v_temp

  # Electrostatic relaxation
  fix swp swpFe atom/swap 1 1 ${rand} ${temp} ke no types 6 7
  fix swp swpFe atom/swap 1 1 185888 ${temp} ke no types 6 7
  fix swp swpFe atom/swap 1 1 185888 19368 ke no types 6 7
  thermo 100
  thermo_style custom step v_ftemp pe f_swp[1] f_swp[2]
  run ${nsteps}
  run 972
WARNING: No fixes with time integration, atoms won't move (../verlet.cpp:60)
PPPM initialization ...
  using 12-bit tables for long-range coulomb (../kspace.cpp:340)
  G vector (1/distance) = 0.29499995
  grid = 45 45 250
  stencil order = 5
  estimated absolute RMS force accuracy = 0.00038527262
  estimated relative force accuracy = 1.160237e-06
  using double precision KISS FFT
  3d grid and FFT values/proc = 554040 378675
  generated 45 of 45 mixed pair_coeff terms from arithmetic mixing rule
Per MPI rank memory allocation (min/avg/max) = 24.35 | 35.11 | 63.71 Mbytes
Step v_ftemp PotEng f_swp[1] f_swp[2] 
    8748        19368   -786439.04            0            0 
    8800        19368   -786307.38           52           20 
    8900        19368   -786089.01          152           63 
    9000        19368   -786243.38          252          103 
    9100        19368   -786458.37          352          138 
    9200        19368   -786491.32          452          172 
    9300        19368   -786063.15          552          208 
    9400        19368   -786325.95          652          246 
    9500        19368   -786378.95          752          278 
    9600        19368   -786237.93          852          314 
    9700        19368   -785932.06          952          354 
    9720        19368   -785903.75          972          360 
Loop time of 263.571 on 4 procs for 972 steps with 4311 atoms

Performance: 0.159 ns/day, 150.647 hours/ns, 3.688 timesteps/s
94.3% CPU use with 4 MPI tasks x no OpenMP threads

MPI task timing breakdown:
Section |  min time  |  avg time  |  max time  |%varavg| %total
---------------------------------------------------------------
Pair    | 2.8689     | 7.4628     | 11.021     | 125.3 |  2.83
Bond    | 0.0014451  | 0.0031328  | 0.0078271  |   4.8 |  0.00
Kspace  | 62         | 65.563     | 70.159     |  42.3 | 24.87
Neigh   | 17.159     | 17.187     | 17.23      |   0.7 |  6.52
Comm    | 0.48676    | 0.54438    | 0.58163    |   5.4 |  0.21
Output  | 0.00023872 | 0.00054594 | 0.001282   |   0.0 |  0.00
Modify  | 172.77     | 172.78     | 172.8      |   0.1 | 65.55
Other   |            | 0.02815    |            |       |  0.01

Nlocal:        1077.75 ave        1494 max         657 min
Histogram: 1 1 0 0 0 0 0 0 1 1
Nghost:        8908.25 ave       11934 max        5689 min
Histogram: 1 1 0 0 0 0 0 0 0 2
Neighs:         536710 ave      798273 max      198736 min
Histogram: 1 0 0 1 0 0 0 0 0 2

Total # of neighbors = 2146840
Ave neighs/atom = 497.99119
Ave special neighs/atom = 0.029227557
Neighbor list builds = 1944
Dangerous builds = 0

  unfix swp
  thermo_style custom step temp pe

next temp
jump SELF minimize_temp

  variable ftemp equal v_temp

  # Electrostatic relaxation
  fix swp swpFe atom/swap 1 1 ${rand} ${temp} ke no types 6 7
  fix swp swpFe atom/swap 1 1 7935996 ${temp} ke no types 6 7
  fix swp swpFe atom/swap 1 1 7935996 17431 ke no types 6 7
  thermo 100
  thermo_style custom step v_ftemp pe f_swp[1] f_swp[2]
  run ${nsteps}
  run 972
WARNING: No fixes with time integration, atoms won't move (../verlet.cpp:60)
PPPM initialization ...
  using 12-bit tables for long-range coulomb (../kspace.cpp:340)
  G vector (1/distance) = 0.29499995
  grid = 45 45 250
  stencil order = 5
  estimated absolute RMS force accuracy = 0.00038527262
  estimated relative force accuracy = 1.160237e-06
  using double precision KISS FFT
  3d grid and FFT values/proc = 554040 378675
  generated 45 of 45 mixed pair_coeff terms from arithmetic mixing rule
Per MPI rank memory allocation (min/avg/max) = 24.35 | 35.11 | 63.71 Mbytes
Step v_ftemp PotEng f_swp[1] f_swp[2] 
    9720        17431   -785903.75            0            0 
    9800        17431   -786177.16           80           27 
    9900        17431   -786307.63          180           68 
   10000        17431   -786345.97          280          109 
   10100        17431   -786471.16          380          139 
   10200        17431   -786434.37          480          174 
   10300        17431   -786426.57          580          207 
   10400        17431   -786347.79          680          243 
   10500        17431   -786132.64          780          281 
   10600        17431   -786436.22          880          311 
   10692        17431   -786440.85          972          345 
Loop time of 269.893 on 4 procs for 972 steps with 4311 atoms

Performance: 0.156 ns/day, 154.260 hours/ns, 3.601 timesteps/s
94.3% CPU use with 4 MPI tasks x no OpenMP threads

MPI task timing breakdown:
Section |  min time  |  avg time  |  max time  |%varavg| %total
---------------------------------------------------------------
Pair    | 2.8367     | 7.362      | 10.923     | 125.2 |  2.73
Bond    | 0.0014496  | 0.0029504  | 0.0072928  |   4.6 |  0.00
Kspace  | 63.883     | 67.447     | 71.974     |  41.4 | 24.99
Neigh   | 17.072     | 17.1       | 17.139     |   0.7 |  6.34
Comm    | 0.46016    | 0.51357    | 0.55177    |   5.3 |  0.19
Output  | 0.00022085 | 0.00053992 | 0.0013168  |   0.0 |  0.00
Modify  | 177.43     | 177.44     | 177.46     |   0.1 | 65.75
Other   |            | 0.02563    |            |       |  0.01

Nlocal:        1077.75 ave        1494 max         657 min
Histogram: 1 1 0 0 0 0 0 0 1 1
Nghost:        8908.25 ave       11934 max        5689 min
Histogram: 1 1 0 0 0 0 0 0 0 2
Neighs:         536710 ave      798273 max      198736 min
Histogram: 1 0 0 1 0 0 0 0 0 2

Total # of neighbors = 2146840
Ave neighs/atom = 497.99119
Ave special neighs/atom = 0.029227557
Neighbor list builds = 1944
Dangerous builds = 0

  unfix swp
  thermo_style custom step temp pe

next temp
jump SELF minimize_temp

  variable ftemp equal v_temp

  # Electrostatic relaxation
  fix swp swpFe atom/swap 1 1 ${rand} ${temp} ke no types 6 7
  fix swp swpFe atom/swap 1 1 473855 ${temp} ke no types 6 7
  fix swp swpFe atom/swap 1 1 473855 15687 ke no types 6 7
  thermo 100
  thermo_style custom step v_ftemp pe f_swp[1] f_swp[2]
  run ${nsteps}
  run 972
WARNING: No fixes with time integration, atoms won't move (../verlet.cpp:60)
PPPM initialization ...
  using 12-bit tables for long-range coulomb (../kspace.cpp:340)
  G vector (1/distance) = 0.29499995
  grid = 45 45 250
  stencil order = 5
  estimated absolute RMS force accuracy = 0.00038527262
  estimated relative force accuracy = 1.160237e-06
  using double precision KISS FFT
  3d grid and FFT values/proc = 554040 378675
  generated 45 of 45 mixed pair_coeff terms from arithmetic mixing rule
Per MPI rank memory allocation (min/avg/max) = 24.35 | 35.11 | 63.71 Mbytes
Step v_ftemp PotEng f_swp[1] f_swp[2] 
   10692        15687   -786440.85            0            0 
   10700        15687   -786325.92            8            2 
   10800        15687   -786396.29          108           36 
   10900        15687   -786628.32          208           65 
   11000        15687   -786669.01          308           91 
   11100        15687   -786511.28          408          115 
   11200        15687    -786463.4          508          147 
   11300        15687   -786546.75          608          175 
   11400        15687   -786401.57          708          195 
   11500        15687   -786612.41          808          227 
   11600        15687   -786417.41          908          250 
   11664        15687   -786608.68          972          266 
Loop time of 266.712 on 4 procs for 972 steps with 4311 atoms

Performance: 0.157 ns/day, 152.441 hours/ns, 3.644 timesteps/s
94.2% CPU use with 4 MPI tasks x no OpenMP threads

MPI task timing breakdown:
Section |  min time  |  avg time  |  max time  |%varavg| %total
---------------------------------------------------------------
Pair    | 2.883      | 7.4398     | 10.956     | 125.4 |  2.79
Bond    | 0.0015057  | 0.0031321  | 0.0076603  |   4.7 |  0.00
Kspace  | 62.997     | 66.516     | 71.074     |  42.0 | 24.94
Neigh   | 16.889     | 16.917     | 16.956     |   0.7 |  6.34
Comm    | 0.44811    | 0.50026    | 0.53604    |   5.1 |  0.19
Output  | 0.00023012 | 0.00054301 | 0.0013009  |   0.0 |  0.00
Modify  | 175.3      | 175.31     | 175.32     |   0.1 | 65.73
Other   |            | 0.02641    |            |       |  0.01

Nlocal:        1077.75 ave        1494 max         657 min
Histogram: 1 1 0 0 0 0 0 0 1 1
Nghost:        8908.25 ave       11934 max        5689 min
Histogram: 1 1 0 0 0 0 0 0 0 2
Neighs:         536710 ave      798273 max      198736 min
Histogram: 1 0 0 1 0 0 0 0 0 2

Total # of neighbors = 2146840
Ave neighs/atom = 497.99119
Ave special neighs/atom = 0.029227557
Neighbor list builds = 1944
Dangerous builds = 0

  unfix swp
  thermo_style custom step temp pe

next temp
jump SELF minimize_temp

  variable ftemp equal v_temp

  # Electrostatic relaxation
  fix swp swpFe atom/swap 1 1 ${rand} ${temp} ke no types 6 7
  fix swp swpFe atom/swap 1 1 7716369 ${temp} ke no types 6 7
  fix swp swpFe atom/swap 1 1 7716369 14118 ke no types 6 7
  thermo 100
  thermo_style custom step v_ftemp pe f_swp[1] f_swp[2]
  run ${nsteps}
  run 972
WARNING: No fixes with time integration, atoms won't move (../verlet.cpp:60)
PPPM initialization ...
  using 12-bit tables for long-range coulomb (../kspace.cpp:340)
  G vector (1/distance) = 0.29499995
  grid = 45 45 250
  stencil order = 5
  estimated absolute RMS force accuracy = 0.00038527262
  estimated relative force accuracy = 1.160237e-06
  using double precision KISS FFT
  3d grid and FFT values/proc = 554040 378675
  generated 45 of 45 mixed pair_coeff terms from arithmetic mixing rule
Per MPI rank memory allocation (min/avg/max) = 24.35 | 35.11 | 63.71 Mbytes
Step v_ftemp PotEng f_swp[1] f_swp[2] 
   11664        14118   -786608.68            0            0 
   11700        14118   -786568.35           36           10 
   11800        14118   -786541.25          136           39 
   11900        14118   -786419.79          236           69 
   12000        14118   -786374.41          336           97 
   12100        14118   -786490.41          436          131 
   12200        14118   -786327.39          536          169 
   12300        14118   -786537.64          636          197 
   12400        14118    -786470.2          736          227 
   12500        14118   -786583.44          836          262 
   12600        14118   -786523.88          936          288 
   12636        14118   -786623.33          972          295 
Loop time of 263.37 on 4 procs for 972 steps with 4311 atoms

Performance: 0.159 ns/day, 150.532 hours/ns, 3.691 timesteps/s
94.5% CPU use with 4 MPI tasks x no OpenMP threads

MPI task timing breakdown:
Section |  min time  |  avg time  |  max time  |%varavg| %total
---------------------------------------------------------------
Pair    | 2.8565     | 7.4225     | 10.942     | 125.4 |  2.82
Bond    | 0.0012151  | 0.0031379  | 0.0080014  |   5.0 |  0.00
Kspace  | 61.487     | 65.012     | 69.576     |  42.4 | 24.68
Neigh   | 16.953     | 16.982     | 17.025     |   0.7 |  6.45
Comm    | 0.46946    | 0.53288    | 0.57268    |   5.9 |  0.20
Output  | 0.00024232 | 0.00054918 | 0.0012511  |   0.0 |  0.00
Modify  | 173.38     | 173.39     | 173.4      |   0.1 | 65.84
Other   |            | 0.0268     |            |       |  0.01

Nlocal:        1077.75 ave        1494 max         657 min
Histogram: 1 1 0 0 0 0 0 0 1 1
Nghost:        8908.25 ave       11934 max        5689 min
Histogram: 1 1 0 0 0 0 0 0 0 2
Neighs:         536710 ave      798273 max      198736 min
Histogram: 1 0 0 1 0 0 0 0 0 2

Total # of neighbors = 2146840
Ave neighs/atom = 497.99119
Ave special neighs/atom = 0.029227557
Neighbor list builds = 1944
Dangerous builds = 0

  unfix swp
  thermo_style custom step temp pe

next temp
jump SELF minimize_temp

  variable ftemp equal v_temp

  # Electrostatic relaxation
  fix swp swpFe atom/swap 1 1 ${rand} ${temp} ke no types 6 7
  fix swp swpFe atom/swap 1 1 8487327 ${temp} ke no types 6 7
  fix swp swpFe atom/swap 1 1 8487327 12706 ke no types 6 7
  thermo 100
  thermo_style custom step v_ftemp pe f_swp[1] f_swp[2]
  run ${nsteps}
  run 972
WARNING: No fixes with time integration, atoms won't move (../verlet.cpp:60)
PPPM initialization ...
  using 12-bit tables for long-range coulomb (../kspace.cpp:340)
  G vector (1/distance) = 0.29499995
  grid = 45 45 250
  stencil order = 5
  estimated absolute RMS force accuracy = 0.00038527262
  estimated relative force accuracy = 1.160237e-06
  using double precision KISS FFT
  3d grid and FFT values/proc = 554040 378675
  generated 45 of 45 mixed pair_coeff terms from arithmetic mixing rule
Per MPI rank memory allocation (min/avg/max) = 24.35 | 35.11 | 63.71 Mbytes
Step v_ftemp PotEng f_swp[1] f_swp[2] 
   12636        12706   -786623.33            0            0 
   12700        12706   -786491.16           64           23 
   12800        12706   -786675.62          164           55 
   12900        12706   -786646.42          264           82 
   13000        12706   -786754.74          364          109 
   13100        12706   -786702.37          464          138 
   13200        12706   -786597.53          564          157 
   13300        12706   -786611.13          664          185 
   13400        12706    -786454.5          764          210 
   13500        12706   -786518.98          864          240 
   13600        12706   -786587.67          964          262 
   13608        12706   -786689.28          972          264 
Loop time of 263.504 on 4 procs for 972 steps with 4311 atoms

Performance: 0.159 ns/day, 150.608 hours/ns, 3.689 timesteps/s
94.1% CPU use with 4 MPI tasks x no OpenMP threads

MPI task timing breakdown:
Section |  min time  |  avg time  |  max time  |%varavg| %total
---------------------------------------------------------------
Pair    | 2.8527     | 7.3933     | 10.919     | 125.1 |  2.81
Bond    | 0.0012539  | 0.0037248  | 0.0104     |   6.3 |  0.00
Kspace  | 61.511     | 65.042     | 69.579     |  42.2 | 24.68
Neigh   | 16.903     | 16.933     | 16.978     |   0.7 |  6.43
Comm    | 0.49094    | 0.5565     | 0.59588    |   5.7 |  0.21
Output  | 0.0002401  | 0.00065484 | 0.0017141  |   0.0 |  0.00
Modify  | 173.54     | 173.55     | 173.57     |   0.1 | 65.86
Other   |            | 0.02665    |            |       |  0.01

Nlocal:        1077.75 ave        1494 max         657 min
Histogram: 1 1 0 0 0 0 0 0 1 1
Nghost:        8908.25 ave       11934 max        5689 min
Histogram: 1 1 0 0 0 0 0 0 0 2
Neighs:         536710 ave      798273 max      198736 min
Histogram: 1 0 0 1 0 0 0 0 0 2

Total # of neighbors = 2146840
Ave neighs/atom = 497.99119
Ave special neighs/atom = 0.029227557
Neighbor list builds = 1944
Dangerous builds = 0

  unfix swp
  thermo_style custom step temp pe

next temp
jump SELF minimize_temp

  variable ftemp equal v_temp

  # Electrostatic relaxation
  fix swp swpFe atom/swap 1 1 ${rand} ${temp} ke no types 6 7
  fix swp swpFe atom/swap 1 1 8505477 ${temp} ke no types 6 7
  fix swp swpFe atom/swap 1 1 8505477 11435 ke no types 6 7
  thermo 100
  thermo_style custom step v_ftemp pe f_swp[1] f_swp[2]
  run ${nsteps}
  run 972
WARNING: No fixes with time integration, atoms won't move (../verlet.cpp:60)
PPPM initialization ...
  using 12-bit tables for long-range coulomb (../kspace.cpp:340)
  G vector (1/distance) = 0.29499995
  grid = 45 45 250
  stencil order = 5
  estimated absolute RMS force accuracy = 0.00038527262
  estimated relative force accuracy = 1.160237e-06
  using double precision KISS FFT
  3d grid and FFT values/proc = 554040 378675
  generated 45 of 45 mixed pair_coeff terms from arithmetic mixing rule
Per MPI rank memory allocation (min/avg/max) = 24.35 | 35.11 | 63.71 Mbytes
Step v_ftemp PotEng f_swp[1] f_swp[2] 
   13608        11435   -786689.28            0            0 
   13700        11435   -786745.97           92           19 
   13800        11435   -786620.05          192           41 
   13900        11435   -786734.66          292           56 
   14000        11435   -786622.12          392           78 
   14100        11435   -786705.81          492           95 
   14200        11435   -786518.16          592          124 
   14300        11435   -786633.76          692          147 
   14400        11435   -786675.87          792          166 
   14500        11435   -786780.25          892          183 
   14580        11435   -786695.19          972          201 
Loop time of 273.127 on 4 procs for 972 steps with 4311 atoms

Performance: 0.154 ns/day, 156.109 hours/ns, 3.559 timesteps/s
93.6% CPU use with 4 MPI tasks x no OpenMP threads

MPI task timing breakdown:
Section |  min time  |  avg time  |  max time  |%varavg| %total
---------------------------------------------------------------
Pair    | 2.8144     | 7.4868     | 11.15      | 127.9 |  2.74
Bond    | 0.0015669  | 0.0032162  | 0.007269   |   4.2 |  0.00
Kspace  | 65.401     | 69.068     | 73.74      |  42.1 | 25.29
Neigh   | 16.667     | 16.694     | 16.733     |   0.7 |  6.11
Comm    | 0.41013    | 0.46038    | 0.49292    |   5.1 |  0.17
Output  | 0.00020786 | 0.00052869 | 0.0012174  |   0.0 |  0.00
Modify  | 179.38     | 179.39     | 179.4      |   0.1 | 65.68
Other   |            | 0.0222     |            |       |  0.01

Nlocal:        1077.75 ave        1494 max         657 min
Histogram: 1 1 0 0 0 0 0 0 1 1
Nghost:        8908.25 ave       11934 max        5689 min
Histogram: 1 1 0 0 0 0 0 0 0 2
Neighs:         536710 ave      798273 max      198736 min
Histogram: 1 0 0 1 0 0 0 0 0 2

Total # of neighbors = 2146840
Ave neighs/atom = 497.99119
Ave special neighs/atom = 0.029227557
Neighbor list builds = 1944
Dangerous builds = 0

  unfix swp
  thermo_style custom step temp pe

next temp
jump SELF minimize_temp

  variable ftemp equal v_temp

  # Electrostatic relaxation
  fix swp swpFe atom/swap 1 1 ${rand} ${temp} ke no types 6 7
  fix swp swpFe atom/swap 1 1 980195 ${temp} ke no types 6 7
  fix swp swpFe atom/swap 1 1 980195 10291 ke no types 6 7
  thermo 100
  thermo_style custom step v_ftemp pe f_swp[1] f_swp[2]
  run ${nsteps}
  run 972
WARNING: No fixes with time integration, atoms won't move (../verlet.cpp:60)
PPPM initialization ...
  using 12-bit tables for long-range coulomb (../kspace.cpp:340)
  G vector (1/distance) = 0.29499995
  grid = 45 45 250
  stencil order = 5
  estimated absolute RMS force accuracy = 0.00038527262
  estimated relative force accuracy = 1.160237e-06
  using double precision KISS FFT
  3d grid and FFT values/proc = 554040 378675
  generated 45 of 45 mixed pair_coeff terms from arithmetic mixing rule
Per MPI rank memory allocation (min/avg/max) = 24.35 | 35.11 | 63.71 Mbytes
Step v_ftemp PotEng f_swp[1] f_swp[2] 
   14580        10291   -786695.19            0            0 
   14600        10291   -786780.83           20            1 
   14700        10291   -786504.57          120           19 
   14800        10291   -786504.23          220           40 
   14900        10291   -786682.33          320           58 
   15000        10291   -786823.57          420           83 
   15100        10291   -786772.45          520           97 
   15200        10291   -786700.01          620          117 
   15300        10291   -786798.03          720          130 
   15400        10291   -786672.43          820          160 
   15500        10291   -786636.77          920          183 
   15552        10291   -786744.43          972          191 
Loop time of 263.616 on 4 procs for 972 steps with 4311 atoms

Performance: 0.159 ns/day, 150.672 hours/ns, 3.687 timesteps/s
94.3% CPU use with 4 MPI tasks x no OpenMP threads

MPI task timing breakdown:
Section |  min time  |  avg time  |  max time  |%varavg| %total
---------------------------------------------------------------
Pair    | 2.8636     | 7.4321     | 10.962     | 125.2 |  2.82
Bond    | 0.0014077  | 0.0032072  | 0.0081201  |   5.0 |  0.00
Kspace  | 61.716     | 65.249     | 69.818     |  42.3 | 24.75
Neigh   | 17.087     | 17.117     | 17.16      |   0.7 |  6.49
Comm    | 0.48464    | 0.54334    | 0.57998    |   5.4 |  0.21
Output  | 0.00029303 | 0.0005942  | 0.0013408  |   0.0 |  0.00
Modify  | 173.23     | 173.24     | 173.26     |   0.1 | 65.72
Other   |            | 0.02622    |            |       |  0.01

Nlocal:        1077.75 ave        1494 max         657 min
Histogram: 1 1 0 0 0 0 0 0 1 1
Nghost:        8908.25 ave       11934 max        5689 min
Histogram: 1 1 0 0 0 0 0 0 0 2
Neighs:         536710 ave      798273 max      198736 min
Histogram: 1 0 0 1 0 0 0 0 0 2

Total # of neighbors = 2146840
Ave neighs/atom = 497.99119
Ave special neighs/atom = 0.029227557
Neighbor list builds = 1944
Dangerous builds = 0

  unfix swp
  thermo_style custom step temp pe

next temp
jump SELF minimize_temp

  variable ftemp equal v_temp

  # Electrostatic relaxation
  fix swp swpFe atom/swap 1 1 ${rand} ${temp} ke no types 6 7
  fix swp swpFe atom/swap 1 1 2065900 ${temp} ke no types 6 7
  fix swp swpFe atom/swap 1 1 2065900 9261 ke no types 6 7
  thermo 100
  thermo_style custom step v_ftemp pe f_swp[1] f_swp[2]
  run ${nsteps}
  run 972
WARNING: No fixes with time integration, atoms won't move (../verlet.cpp:60)
PPPM initialization ...
  using 12-bit tables for long-range coulomb (../kspace.cpp:340)
  G vector (1/distance) = 0.29499995
  grid = 45 45 250
  stencil order = 5
  estimated absolute RMS force accuracy = 0.00038527262
  estimated relative force accuracy = 1.160237e-06
  using double precision KISS FFT
  3d grid and FFT values/proc = 554040 378675
  generated 45 of 45 mixed pair_coeff terms from arithmetic mixing rule
Per MPI rank memory allocation (min/avg/max) = 24.35 | 35.11 | 63.71 Mbytes
Step v_ftemp PotEng f_swp[1] f_swp[2] 
   15552         9261   -786744.43            0            0 
   15600         9261   -786754.78           48            7 
   15700         9261   -786559.32          148           24 
   15800         9261   -786644.23          248           47 
   15900         9261   -786751.62          348           64 
   16000         9261   -786767.85          448           74 
   16100         9261   -786778.06          548           90 
   16200         9261   -786692.87          648          103 
   16300         9261   -786646.89          748          121 
   16400         9261   -786814.32          848          133 
   16500         9261   -786835.96          948          147 
   16524         9261    -786810.8          972          151 
Loop time of 266.607 on 4 procs for 972 steps with 4311 atoms

Performance: 0.157 ns/day, 152.382 hours/ns, 3.646 timesteps/s
94.1% CPU use with 4 MPI tasks x no OpenMP threads

MPI task timing breakdown:
Section |  min time  |  avg time  |  max time  |%varavg| %total
---------------------------------------------------------------
Pair    | 2.8679     | 7.3708     | 10.878     | 124.6 |  2.76
Bond    | 0.0012797  | 0.0030363  | 0.0074963  |   4.7 |  0.00
Kspace  | 63.284     | 66.795     | 71.298     |  41.4 | 25.05
Neigh   | 16.931     | 16.959     | 17         |   0.7 |  6.36
Comm    | 0.46258    | 0.51804    | 0.55378    |   5.2 |  0.19
Output  | 0.00021668 | 0.00052216 | 0.0012676  |   0.0 |  0.00
Modify  | 174.92     | 174.94     | 174.95     |   0.1 | 65.62
Other   |            | 0.0256     |            |       |  0.01

Nlocal:        1077.75 ave        1494 max         657 min
Histogram: 1 1 0 0 0 0 0 0 1 1
Nghost:        8908.25 ave       11934 max        5689 min
Histogram: 1 1 0 0 0 0 0 0 0 2
Neighs:         536710 ave      798273 max      198736 min
Histogram: 1 0 0 1 0 0 0 0 0 2

Total # of neighbors = 2146840
Ave neighs/atom = 497.99119
Ave special neighs/atom = 0.029227557
Neighbor list builds = 1944
Dangerous builds = 0

  unfix swp
  thermo_style custom step temp pe

next temp
jump SELF minimize_temp

  variable ftemp equal v_temp

  # Electrostatic relaxation
  fix swp swpFe atom/swap 1 1 ${rand} ${temp} ke no types 6 7
  fix swp swpFe atom/swap 1 1 5185835 ${temp} ke no types 6 7
  fix swp swpFe atom/swap 1 1 5185835 8334 ke no types 6 7
  thermo 100
  thermo_style custom step v_ftemp pe f_swp[1] f_swp[2]
  run ${nsteps}
  run 972
WARNING: No fixes with time integration, atoms won't move (../verlet.cpp:60)
PPPM initialization ...
  using 12-bit tables for long-range coulomb (../kspace.cpp:340)
  G vector (1/distance) = 0.29499995
  grid = 45 45 250
  stencil order = 5
  estimated absolute RMS force accuracy = 0.00038527262
  estimated relative force accuracy = 1.160237e-06
  using double precision KISS FFT
  3d grid and FFT values/proc = 554040 378675
  generated 45 of 45 mixed pair_coeff terms from arithmetic mixing rule
Per MPI rank memory allocation (min/avg/max) = 24.35 | 35.11 | 63.71 Mbytes
Step v_ftemp PotEng f_swp[1] f_swp[2] 
   16524         8334    -786810.8            0            0 
   16600         8334   -786687.32           76           12 
   16700         8334   -786734.92          176           30 
   16800         8334   -786798.36          276           51 
   16900         8334   -786871.02          376           68 
   17000         8334   -786832.94          476           88 
   17100         8334   -786855.21          576           99 
   17200         8334   -786744.61          676          108 
   17300         8334   -786803.49          776          119 
   17400         8334   -786708.44          876          136 
   17496         8334    -786687.1          972          155 
Loop time of 268.692 on 4 procs for 972 steps with 4311 atoms

Performance: 0.156 ns/day, 153.573 hours/ns, 3.618 timesteps/s
94.1% CPU use with 4 MPI tasks x no OpenMP threads

MPI task timing breakdown:
Section |  min time  |  avg time  |  max time  |%varavg| %total
---------------------------------------------------------------
Pair    | 2.8135     | 7.3184     | 10.85      | 124.7 |  2.72
Bond    | 0.0011674  | 0.0027387  | 0.0071335  |   4.9 |  0.00
Kspace  | 63.092     | 66.628     | 71.133     |  41.4 | 24.80
Neigh   | 16.914     | 16.943     | 16.986     |   0.7 |  6.31
Comm    | 0.50077    | 0.56089    | 0.59871    |   5.4 |  0.21
Output  | 0.00024127 | 0.00060776 | 0.0015301  |   0.0 |  0.00
Modify  | 177.2      | 177.21     | 177.23     |   0.1 | 65.95
Other   |            | 0.0264     |            |       |  0.01

Nlocal:        1077.75 ave        1494 max         657 min
Histogram: 1 1 0 0 0 0 0 0 1 1
Nghost:        8908.25 ave       11934 max        5689 min
Histogram: 1 1 0 0 0 0 0 0 0 2
Neighs:         536710 ave      798273 max      198736 min
Histogram: 1 0 0 1 0 0 0 0 0 2

Total # of neighbors = 2146840
Ave neighs/atom = 497.99119
Ave special neighs/atom = 0.029227557
Neighbor list builds = 1944
Dangerous builds = 0

  unfix swp
  thermo_style custom step temp pe

next temp
jump SELF minimize_temp

  variable ftemp equal v_temp

  # Electrostatic relaxation
  fix swp swpFe atom/swap 1 1 ${rand} ${temp} ke no types 6 7
  fix swp swpFe atom/swap 1 1 3359353 ${temp} ke no types 6 7
  fix swp swpFe atom/swap 1 1 3359353 7500 ke no types 6 7
  thermo 100
  thermo_style custom step v_ftemp pe f_swp[1] f_swp[2]
  run ${nsteps}
  run 972
WARNING: No fixes with time integration, atoms won't move (../verlet.cpp:60)
PPPM initialization ...
  using 12-bit tables for long-range coulomb (../kspace.cpp:340)
  G vector (1/distance) = 0.29499995
  grid = 45 45 250
  stencil order = 5
  estimated absolute RMS force accuracy = 0.00038527262
  estimated relative force accuracy = 1.160237e-06
  using double precision KISS FFT
  3d grid and FFT values/proc = 554040 378675
  generated 45 of 45 mixed pair_coeff terms from arithmetic mixing rule
Per MPI rank memory allocation (min/avg/max) = 24.35 | 35.11 | 63.71 Mbytes
Step v_ftemp PotEng f_swp[1] f_swp[2] 
   17496         7500    -786687.1            0            0 
   17500         7500   -786688.89            4            2 
   17600         7500   -786773.55          104           19 
   17700         7500   -786885.92          204           30 
   17800         7500   -786807.83          304           43 
   17900         7500    -786904.7          404           54 
   18000         7500   -786870.03          504           58 
   18100         7500   -786770.36          604           69 
   18200         7500   -786779.88          704           81 
   18300         7500   -786867.47          804           95 
   18400         7500   -786708.92          904          107 
   18468         7500    -786774.2          972          116 
Loop time of 270.56 on 4 procs for 972 steps with 4311 atoms

Performance: 0.155 ns/day, 154.641 hours/ns, 3.593 timesteps/s
94.0% CPU use with 4 MPI tasks x no OpenMP threads

MPI task timing breakdown:
Section |  min time  |  avg time  |  max time  |%varavg| %total
---------------------------------------------------------------
Pair    | 2.8467     | 7.3233     | 10.803     | 123.9 |  2.71
Bond    | 0.0012088  | 0.0029347  | 0.0072279  |   4.6 |  0.00
Kspace  | 64.929     | 68.413     | 72.89      |  40.6 | 25.29
Neigh   | 16.769     | 16.796     | 16.837     |   0.7 |  6.21
Comm    | 0.45927    | 0.51395    | 0.54975    |   5.2 |  0.19
Output  | 0.00023835 | 0.00055387 | 0.0013163  |   0.0 |  0.00
Modify  | 177.47     | 177.49     | 177.5      |   0.1 | 65.60
Other   |            | 0.02459    |            |       |  0.01

Nlocal:        1077.75 ave        1494 max         657 min
Histogram: 1 1 0 0 0 0 0 0 1 1
Nghost:        8908.25 ave       11934 max        5689 min
Histogram: 1 1 0 0 0 0 0 0 0 2
Neighs:         536710 ave      798273 max      198736 min
Histogram: 1 0 0 1 0 0 0 0 0 2

Total # of neighbors = 2146840
Ave neighs/atom = 497.99119
Ave special neighs/atom = 0.029227557
Neighbor list builds = 1944
Dangerous builds = 0

  unfix swp
  thermo_style custom step temp pe

next temp
jump SELF minimize_temp

  variable ftemp equal v_temp

  # Electrostatic relaxation
  fix swp swpFe atom/swap 1 1 ${rand} ${temp} ke no types 6 7
  fix swp swpFe atom/swap 1 1 6806545 ${temp} ke no types 6 7
  fix swp swpFe atom/swap 1 1 6806545 6750 ke no types 6 7
  thermo 100
  thermo_style custom step v_ftemp pe f_swp[1] f_swp[2]
  run ${nsteps}
  run 972
WARNING: No fixes with time integration, atoms won't move (../verlet.cpp:60)
PPPM initialization ...
  using 12-bit tables for long-range coulomb (../kspace.cpp:340)
  G vector (1/distance) = 0.29499995
  grid = 45 45 250
  stencil order = 5
  estimated absolute RMS force accuracy = 0.00038527262
  estimated relative force accuracy = 1.160237e-06
  using double precision KISS FFT
  3d grid and FFT values/proc = 554040 378675
  generated 45 of 45 mixed pair_coeff terms from arithmetic mixing rule
Per MPI rank memory allocation (min/avg/max) = 24.35 | 35.11 | 63.71 Mbytes
Step v_ftemp PotEng f_swp[1] f_swp[2] 
   18468         6750    -786774.2            0            0 
   18500         6750      -786750           32            1 
   18600         6750   -786858.12          132           12 
   18700         6750   -786798.05          232           26 
   18800         6750   -786836.99          332           33 
   18900         6750   -786903.62          432           44 
   19000         6750      -786930          532           57 
   19100         6750   -786915.12          632           64 
   19200         6750    -786834.9          732           80 
   19300         6750   -786791.01          832           93 
   19400         6750   -786883.91          932          101 
   19440         6750   -786877.61          972          102 
Loop time of 270.081 on 4 procs for 972 steps with 4311 atoms

Performance: 0.155 ns/day, 154.368 hours/ns, 3.599 timesteps/s
94.0% CPU use with 4 MPI tasks x no OpenMP threads

MPI task timing breakdown:
Section |  min time  |  avg time  |  max time  |%varavg| %total
---------------------------------------------------------------
Pair    | 2.8515     | 7.4162     | 10.986     | 126.6 |  2.75
Bond    | 0.0011092  | 0.0032135  | 0.0077882  |   4.7 |  0.00
Kspace  | 64.718     | 68.291     | 72.857     |  41.8 | 25.29
Neigh   | 16.826     | 16.853     | 16.892     |   0.7 |  6.24
Comm    | 0.42915    | 0.48112    | 0.51404    |   5.1 |  0.18
Output  | 0.00022098 | 0.000528   | 0.0012793  |   0.0 |  0.00
Modify  | 177        | 177.01     | 177.03     |   0.1 | 65.54
Other   |            | 0.02499    |            |       |  0.01

Nlocal:        1077.75 ave        1494 max         657 min
Histogram: 1 1 0 0 0 0 0 0 1 1
Nghost:        8908.25 ave       11934 max        5689 min
Histogram: 1 1 0 0 0 0 0 0 0 2
Neighs:         536710 ave      798273 max      198736 min
Histogram: 1 0 0 1 0 0 0 0 0 2

Total # of neighbors = 2146840
Ave neighs/atom = 497.99119
Ave special neighs/atom = 0.029227557
Neighbor list builds = 1944
Dangerous builds = 0

  unfix swp
  thermo_style custom step temp pe

next temp
jump SELF minimize_temp

  variable ftemp equal v_temp

  # Electrostatic relaxation
  fix swp swpFe atom/swap 1 1 ${rand} ${temp} ke no types 6 7
  fix swp swpFe atom/swap 1 1 594805 ${temp} ke no types 6 7
  fix swp swpFe atom/swap 1 1 594805 6075 ke no types 6 7
  thermo 100
  thermo_style custom step v_ftemp pe f_swp[1] f_swp[2]
  run ${nsteps}
  run 972
WARNING: No fixes with time integration, atoms won't move (../verlet.cpp:60)
PPPM initialization ...
  using 12-bit tables for long-range coulomb (../kspace.cpp:340)
  G vector (1/distance) = 0.29499995
  grid = 45 45 250
  stencil order = 5
  estimated absolute RMS force accuracy = 0.00038527262
  estimated relative force accuracy = 1.160237e-06
  using double precision KISS FFT
  3d grid and FFT values/proc = 554040 378675
  generated 45 of 45 mixed pair_coeff terms from arithmetic mixing rule
Per MPI rank memory allocation (min/avg/max) = 24.35 | 35.11 | 63.71 Mbytes
Step v_ftemp PotEng f_swp[1] f_swp[2] 
   19440         6075   -786877.61            0            0 
   19500         6075   -786864.88           60            5 
   19600         6075   -786892.63          160           16 
   19700         6075    -786804.6          260           24 
   19800         6075   -786888.19          360           32 
   19900         6075   -786829.19          460           37 
   20000         6075   -786837.67          560           47 
   20100         6075   -786801.15          660           56 
   20200         6075   -786870.04          760           67 
   20300         6075   -786893.27          860           72 
   20400         6075   -786869.47          960           84 
   20412         6075   -786869.47          972           84 
Loop time of 269.34 on 4 procs for 972 steps with 4311 atoms

Performance: 0.156 ns/day, 153.944 hours/ns, 3.609 timesteps/s
94.3% CPU use with 4 MPI tasks x no OpenMP threads

MPI task timing breakdown:
Section |  min time  |  avg time  |  max time  |%varavg| %total
---------------------------------------------------------------
Pair    | 2.8372     | 7.4585     | 11.061     | 127.1 |  2.77
Bond    | 0.0015297  | 0.0033478  | 0.0078335  |   4.5 |  0.00
Kspace  | 64.232     | 67.838     | 72.46      |  42.2 | 25.19
Neigh   | 16.672     | 16.701     | 16.74      |   0.6 |  6.20
Comm    | 0.41649    | 0.46951    | 0.50292    |   5.0 |  0.17
Output  | 0.00020971 | 0.00051082 | 0.0012739  |   0.0 |  0.00
Modify  | 176.84     | 176.84     | 176.86     |   0.1 | 65.66
Other   |            | 0.02385    |            |       |  0.01

Nlocal:        1077.75 ave        1494 max         657 min
Histogram: 1 1 0 0 0 0 0 0 1 1
Nghost:        8908.25 ave       11934 max        5689 min
Histogram: 1 1 0 0 0 0 0 0 0 2
Neighs:         536710 ave      798273 max      198736 min
Histogram: 1 0 0 1 0 0 0 0 0 2

Total # of neighbors = 2146840
Ave neighs/atom = 497.99119
Ave special neighs/atom = 0.029227557
Neighbor list builds = 1944
Dangerous builds = 0

  unfix swp
  thermo_style custom step temp pe

next temp
jump SELF minimize_temp

  variable ftemp equal v_temp

  # Electrostatic relaxation
  fix swp swpFe atom/swap 1 1 ${rand} ${temp} ke no types 6 7
  fix swp swpFe atom/swap 1 1 3129163 ${temp} ke no types 6 7
  fix swp swpFe atom/swap 1 1 3129163 5467 ke no types 6 7
  thermo 100
  thermo_style custom step v_ftemp pe f_swp[1] f_swp[2]
  run ${nsteps}
  run 972
WARNING: No fixes with time integration, atoms won't move (../verlet.cpp:60)
PPPM initialization ...
  using 12-bit tables for long-range coulomb (../kspace.cpp:340)
  G vector (1/distance) = 0.29499995
  grid = 45 45 250
  stencil order = 5
  estimated absolute RMS force accuracy = 0.00038527262
  estimated relative force accuracy = 1.160237e-06
  using double precision KISS FFT
  3d grid and FFT values/proc = 554040 378675
  generated 45 of 45 mixed pair_coeff terms from arithmetic mixing rule
Per MPI rank memory allocation (min/avg/max) = 24.35 | 35.11 | 63.71 Mbytes
Step v_ftemp PotEng f_swp[1] f_swp[2] 
   20412         5467   -786869.47            0            0 
   20500         5467   -786945.64           88           11 
   20600         5467   -786921.27          188           17 
   20700         5467   -786839.43          288           26 
   20800         5467   -786880.38          388           36 
   20900         5467   -786972.96          488           48 
   21000         5467    -786940.3          588           50 
   21100         5467   -786871.36          688           57 
   21200         5467   -786928.49          788           63 
   21300         5467      -786874          888           69 
   21384         5467   -786897.39          972           77 
Loop time of 266.884 on 4 procs for 972 steps with 4311 atoms

Performance: 0.157 ns/day, 152.540 hours/ns, 3.642 timesteps/s
94.0% CPU use with 4 MPI tasks x no OpenMP threads

MPI task timing breakdown:
Section |  min time  |  avg time  |  max time  |%varavg| %total
---------------------------------------------------------------
Pair    | 2.8657     | 7.4965     | 11.107     | 126.8 |  2.81
Bond    | 0.0016121  | 0.0034217  | 0.0084831  |   5.0 |  0.00
Kspace  | 62.296     | 65.926     | 70.538     |  42.8 | 24.70
Neigh   | 17.03      | 17.069     | 17.103     |   0.7 |  6.40
Comm    | 0.4565     | 0.52214    | 0.56551    |   5.8 |  0.20
Output  | 0.00029599 | 0.0005768  | 0.0013764  |   0.0 |  0.00
Modify  | 175.83     | 175.84     | 175.85     |   0.1 | 65.89
Other   |            | 0.02727    |            |       |  0.01

Nlocal:        1077.75 ave        1494 max         657 min
Histogram: 1 1 0 0 0 0 0 0 1 1
Nghost:        8908.25 ave       11934 max        5689 min
Histogram: 1 1 0 0 0 0 0 0 0 2
Neighs:         536710 ave      798273 max      198736 min
Histogram: 1 0 0 1 0 0 0 0 0 2

Total # of neighbors = 2146840
Ave neighs/atom = 497.99119
Ave special neighs/atom = 0.029227557
Neighbor list builds = 1944
Dangerous builds = 0

  unfix swp
  thermo_style custom step temp pe

next temp
jump SELF minimize_temp

  variable ftemp equal v_temp

  # Electrostatic relaxation
  fix swp swpFe atom/swap 1 1 ${rand} ${temp} ke no types 6 7
  fix swp swpFe atom/swap 1 1 8397505 ${temp} ke no types 6 7
  fix swp swpFe atom/swap 1 1 8397505 4920 ke no types 6 7
  thermo 100
  thermo_style custom step v_ftemp pe f_swp[1] f_swp[2]
  run ${nsteps}
  run 972
WARNING: No fixes with time integration, atoms won't move (../verlet.cpp:60)
PPPM initialization ...
  using 12-bit tables for long-range coulomb (../kspace.cpp:340)
  G vector (1/distance) = 0.29499995
  grid = 45 45 250
  stencil order = 5
  estimated absolute RMS force accuracy = 0.00038527262
  estimated relative force accuracy = 1.160237e-06
  using double precision KISS FFT
  3d grid and FFT values/proc = 554040 378675
  generated 45 of 45 mixed pair_coeff terms from arithmetic mixing rule
Per MPI rank memory allocation (min/avg/max) = 24.35 | 35.11 | 63.71 Mbytes
Step v_ftemp PotEng f_swp[1] f_swp[2] 
   21384         4920   -786897.39            0            0 
   21400         4920   -786899.54           16            1 
   21500         4920   -786872.24          116            9 
   21600         4920   -786919.69          216           14 
   21700         4920   -786911.05          316           19 
   21800         4920   -786885.64          416           25 
   21900         4920   -786884.08          516           30 
   22000         4920   -786935.11          616           41 
   22100         4920   -786904.22          716           47 
   22200         4920   -786894.77          816           56 
   22300         4920   -786940.75          916           59 
   22356         4920   -786898.14          972           64 
Loop time of 267.965 on 4 procs for 972 steps with 4311 atoms

Performance: 0.157 ns/day, 153.158 hours/ns, 3.627 timesteps/s
94.1% CPU use with 4 MPI tasks x no OpenMP threads

MPI task timing breakdown:
Section |  min time  |  avg time  |  max time  |%varavg| %total
---------------------------------------------------------------
Pair    | 2.8791     | 7.481      | 11.064     | 126.8 |  2.79
Bond    | 0.0016501  | 0.0034921  | 0.0082899  |   4.7 |  0.00
Kspace  | 63.16      | 66.746     | 71.35      |  42.5 | 24.91
Neigh   | 16.916     | 16.942     | 16.979     |   0.6 |  6.32
Comm    | 0.43332    | 0.48373    | 0.51698    |   5.0 |  0.18
Output  | 0.0002208  | 0.00063343 | 0.0017051  |   0.0 |  0.00
Modify  | 176.27     | 176.28     | 176.3      |   0.1 | 65.79
Other   |            | 0.02614    |            |       |  0.01

Nlocal:        1077.75 ave        1494 max         657 min
Histogram: 1 1 0 0 0 0 0 0 1 1
Nghost:        8908.25 ave       11934 max        5689 min
Histogram: 1 1 0 0 0 0 0 0 0 2
Neighs:         536710 ave      798273 max      198736 min
Histogram: 1 0 0 1 0 0 0 0 0 2

Total # of neighbors = 2146840
Ave neighs/atom = 497.99119
Ave special neighs/atom = 0.029227557
Neighbor list builds = 1944
Dangerous builds = 0

  unfix swp
  thermo_style custom step temp pe

next temp
jump SELF minimize_temp

  variable ftemp equal v_temp

  # Electrostatic relaxation
  fix swp swpFe atom/swap 1 1 ${rand} ${temp} ke no types 6 7
  fix swp swpFe atom/swap 1 1 7746391 ${temp} ke no types 6 7
  fix swp swpFe atom/swap 1 1 7746391 4428 ke no types 6 7
  thermo 100
  thermo_style custom step v_ftemp pe f_swp[1] f_swp[2]
  run ${nsteps}
  run 972
WARNING: No fixes with time integration, atoms won't move (../verlet.cpp:60)
PPPM initialization ...
  using 12-bit tables for long-range coulomb (../kspace.cpp:340)
  G vector (1/distance) = 0.29499995
  grid = 45 45 250
  stencil order = 5
  estimated absolute RMS force accuracy = 0.00038527262
  estimated relative force accuracy = 1.160237e-06
  using double precision KISS FFT
  3d grid and FFT values/proc = 554040 378675
  generated 45 of 45 mixed pair_coeff terms from arithmetic mixing rule
Per MPI rank memory allocation (min/avg/max) = 24.35 | 35.11 | 63.71 Mbytes
Step v_ftemp PotEng f_swp[1] f_swp[2] 
   22356         4428   -786898.14            0            0 
   22400         4428   -786898.14           44            0 
   22500         4428   -786910.66          144            7 
   22600         4428   -786921.61          244           12 
   22700         4428   -786906.69          344           13 
   22800         4428   -786915.93          444           17 
   22900         4428   -786942.35          544           21 
   23000         4428   -786954.42          644           26 
   23100         4428   -786977.94          744           29 
   23200         4428   -786948.09          844           33 
   23300         4428   -786955.04          944           35 
   23328         4428   -786939.05          972           37 
Loop time of 269.071 on 4 procs for 972 steps with 4311 atoms

Performance: 0.156 ns/day, 153.790 hours/ns, 3.612 timesteps/s
94.1% CPU use with 4 MPI tasks x no OpenMP threads

MPI task timing breakdown:
Section |  min time  |  avg time  |  max time  |%varavg| %total
---------------------------------------------------------------
Pair    | 2.8204     | 7.3451     | 10.847     | 124.9 |  2.73
Bond    | 0.00123    | 0.0028643  | 0.0074157  |   4.9 |  0.00
Kspace  | 63.548     | 67.054     | 71.58      |  41.4 | 24.92
Neigh   | 17.05      | 17.083     | 17.128     |   0.8 |  6.35
Comm    | 0.48067    | 0.54267    | 0.58687    |   5.8 |  0.20
Output  | 0.00025461 | 0.00066901 | 0.0017315  |   0.0 |  0.00
Modify  | 177.01     | 177.02     | 177.03     |   0.1 | 65.79
Other   |            | 0.02499    |            |       |  0.01

Nlocal:        1077.75 ave        1494 max         657 min
Histogram: 1 1 0 0 0 0 0 0 1 1
Nghost:        8908.25 ave       11934 max        5689 min
Histogram: 1 1 0 0 0 0 0 0 0 2
Neighs:         536710 ave      798273 max      198736 min
Histogram: 1 0 0 1 0 0 0 0 0 2

Total # of neighbors = 2146840
Ave neighs/atom = 497.99119
Ave special neighs/atom = 0.029227557
Neighbor list builds = 1944
Dangerous builds = 0

  unfix swp
  thermo_style custom step temp pe

next temp
jump SELF minimize_temp

  variable ftemp equal v_temp

  # Electrostatic relaxation
  fix swp swpFe atom/swap 1 1 ${rand} ${temp} ke no types 6 7
  fix swp swpFe atom/swap 1 1 6520128 ${temp} ke no types 6 7
  fix swp swpFe atom/swap 1 1 6520128 3985 ke no types 6 7
  thermo 100
  thermo_style custom step v_ftemp pe f_swp[1] f_swp[2]
  run ${nsteps}
  run 972
WARNING: No fixes with time integration, atoms won't move (../verlet.cpp:60)
PPPM initialization ...
  using 12-bit tables for long-range coulomb (../kspace.cpp:340)
  G vector (1/distance) = 0.29499995
  grid = 45 45 250
  stencil order = 5
  estimated absolute RMS force accuracy = 0.00038527262
  estimated relative force accuracy = 1.160237e-06
  using double precision KISS FFT
  3d grid and FFT values/proc = 554040 378675
  generated 45 of 45 mixed pair_coeff terms from arithmetic mixing rule
Per MPI rank memory allocation (min/avg/max) = 24.35 | 35.11 | 63.71 Mbytes
Step v_ftemp PotEng f_swp[1] f_swp[2] 
   23328         3985   -786939.05            0            0 
   23400         3985   -786948.54           72            3 
   23500         3985   -786985.24          172            8 
   23600         3985   -786984.14          272           13 
   23700         3985   -786968.29          372           18 
   23800         3985   -786966.79          472           23 
   23900         3985   -786932.83          572           34 
   24000         3985   -786967.82          672           42 
   24100         3985   -786992.18          772           47 
   24200         3985   -786999.71          872           49 
   24300         3985   -786992.14          972           51 
Loop time of 268.172 on 4 procs for 972 steps with 4311 atoms

Performance: 0.157 ns/day, 153.276 hours/ns, 3.625 timesteps/s
94.2% CPU use with 4 MPI tasks x no OpenMP threads

MPI task timing breakdown:
Section |  min time  |  avg time  |  max time  |%varavg| %total
---------------------------------------------------------------
Pair    | 2.84       | 7.4444     | 11.108     | 126.9 |  2.78
Bond    | 0.0015871  | 0.003314   | 0.0079454  |   4.7 |  0.00
Kspace  | 63.198     | 66.865     | 71.47      |  42.4 | 24.93
Neigh   | 16.951     | 16.978     | 17.017     |   0.7 |  6.33
Comm    | 0.44336    | 0.49544    | 0.52926    |   5.1 |  0.18
Output  | 0.00020134 | 0.00047916 | 0.0011817  |   0.0 |  0.00
Modify  | 176.35     | 176.36     | 176.38     |   0.1 | 65.76
Other   |            | 0.02521    |            |       |  0.01

Nlocal:        1077.75 ave        1494 max         657 min
Histogram: 1 1 0 0 0 0 0 0 1 1
Nghost:        8908.25 ave       11934 max        5689 min
Histogram: 1 1 0 0 0 0 0 0 0 2
Neighs:         536710 ave      798273 max      198736 min
Histogram: 1 0 0 1 0 0 0 0 0 2

Total # of neighbors = 2146840
Ave neighs/atom = 497.99119
Ave special neighs/atom = 0.029227557
Neighbor list builds = 1944
Dangerous builds = 0

  unfix swp
  thermo_style custom step temp pe

next temp
jump SELF minimize_temp

  variable ftemp equal v_temp

  # Electrostatic relaxation
  fix swp swpFe atom/swap 1 1 ${rand} ${temp} ke no types 6 7
  fix swp swpFe atom/swap 1 1 4419602 ${temp} ke no types 6 7
  fix swp swpFe atom/swap 1 1 4419602 3586 ke no types 6 7
  thermo 100
  thermo_style custom step v_ftemp pe f_swp[1] f_swp[2]
  run ${nsteps}
  run 972
WARNING: No fixes with time integration, atoms won't move (../verlet.cpp:60)
PPPM initialization ...
  using 12-bit tables for long-range coulomb (../kspace.cpp:340)
  G vector (1/distance) = 0.29499995
  grid = 45 45 250
  stencil order = 5
  estimated absolute RMS force accuracy = 0.00038527262
  estimated relative force accuracy = 1.160237e-06
  using double precision KISS FFT
  3d grid and FFT values/proc = 554040 378675
  generated 45 of 45 mixed pair_coeff terms from arithmetic mixing rule
Per MPI rank memory allocation (min/avg/max) = 24.35 | 35.11 | 63.71 Mbytes
Step v_ftemp PotEng f_swp[1] f_swp[2] 
   24300         3586   -786992.14            0            0 
   24400         3586   -786992.98          100            2 
   24500         3586   -786992.59          200            3 
   24600         3586   -786948.31          300            7 
   24700         3586   -786959.52          400           11 
   24800         3586   -786969.32          500           14 
   24900         3586   -786927.54          600           21 
   25000         3586   -786892.82          700           27 
   25100         3586    -786919.3          800           29 
   25200         3586   -786938.72          900           38 
   25272         3586   -786938.72          972           38 
Loop time of 268 on 4 procs for 972 steps with 4311 atoms

Performance: 0.157 ns/day, 153.178 hours/ns, 3.627 timesteps/s
94.0% CPU use with 4 MPI tasks x no OpenMP threads

MPI task timing breakdown:
Section |  min time  |  avg time  |  max time  |%varavg| %total
---------------------------------------------------------------
Pair    | 2.872      | 7.4643     | 11.073     | 126.8 |  2.79
Bond    | 0.0015108  | 0.0032672  | 0.0079939  |   4.8 |  0.00
Kspace  | 62.941     | 66.554     | 71.148     |  42.5 | 24.83
Neigh   | 17.082     | 17.108     | 17.147     |   0.7 |  6.38
Comm    | 0.45562    | 0.50774    | 0.5428     |   5.1 |  0.19
Output  | 0.00020597 | 0.00050816 | 0.0012357  |   0.0 |  0.00
Modify  | 176.32     | 176.34     | 176.35     |   0.1 | 65.80
Other   |            | 0.02588    |            |       |  0.01

Nlocal:        1077.75 ave        1494 max         657 min
Histogram: 1 1 0 0 0 0 0 0 1 1
Nghost:        8908.25 ave       11934 max        5689 min
Histogram: 1 1 0 0 0 0 0 0 0 2
Neighs:         536710 ave      798273 max      198736 min
Histogram: 1 0 0 1 0 0 0 0 0 2

Total # of neighbors = 2146840
Ave neighs/atom = 497.99119
Ave special neighs/atom = 0.029227557
Neighbor list builds = 1944
Dangerous builds = 0

  unfix swp
  thermo_style custom step temp pe

next temp
jump SELF minimize_temp

  variable ftemp equal v_temp

  # Electrostatic relaxation
  fix swp swpFe atom/swap 1 1 ${rand} ${temp} ke no types 6 7
  fix swp swpFe atom/swap 1 1 2199081 ${temp} ke no types 6 7
  fix swp swpFe atom/swap 1 1 2199081 3227 ke no types 6 7
  thermo 100
  thermo_style custom step v_ftemp pe f_swp[1] f_swp[2]
  run ${nsteps}
  run 972
WARNING: No fixes with time integration, atoms won't move (../verlet.cpp:60)
PPPM initialization ...
  using 12-bit tables for long-range coulomb (../kspace.cpp:340)
  G vector (1/distance) = 0.29499995
  grid = 45 45 250
  stencil order = 5
  estimated absolute RMS force accuracy = 0.00038527262
  estimated relative force accuracy = 1.160237e-06
  using double precision KISS FFT
  3d grid and FFT values/proc = 554040 378675
  generated 45 of 45 mixed pair_coeff terms from arithmetic mixing rule
Per MPI rank memory allocation (min/avg/max) = 24.35 | 35.11 | 63.71 Mbytes
Step v_ftemp PotEng f_swp[1] f_swp[2] 
   25272         3227   -786938.72            0            0 
   25300         3227    -786936.6           28            1 
   25400         3227   -786983.93          128            7 
   25500         3227   -786963.32          228           12 
   25600         3227   -786968.63          328           17 
   25700         3227   -786978.65          428           20 
   25800         3227   -786978.65          528           20 
   25900         3227   -786976.05          628           21 
   26000         3227   -786978.95          728           24 
   26100         3227    -786962.5          828           26 
   26200         3227   -786900.77          928           33 
   26244         3227   -786929.08          972           35 
Loop time of 271.152 on 4 procs for 972 steps with 4311 atoms

Performance: 0.155 ns/day, 154.979 hours/ns, 3.585 timesteps/s
94.1% CPU use with 4 MPI tasks x no OpenMP threads

MPI task timing breakdown:
Section |  min time  |  avg time  |  max time  |%varavg| %total
---------------------------------------------------------------
Pair    | 2.8113     | 7.3667     | 10.879     | 125.5 |  2.72
Bond    | 0.0014008  | 0.0030955  | 0.0077022  |   4.8 |  0.00
Kspace  | 64.586     | 68.1       | 72.656     |  41.3 | 25.12
Neigh   | 16.816     | 16.844     | 16.881     |   0.7 |  6.21
Comm    | 0.44013    | 0.49041    | 0.52547    |   5.2 |  0.18
Output  | 0.0002092  | 0.00049618 | 0.001198   |   0.0 |  0.00
Modify  | 178.31     | 178.32     | 178.34     |   0.1 | 65.76
Other   |            | 0.02459    |            |       |  0.01

Nlocal:        1077.75 ave        1494 max         657 min
Histogram: 1 1 0 0 0 0 0 0 1 1
Nghost:        8908.25 ave       11934 max        5689 min
Histogram: 1 1 0 0 0 0 0 0 0 2
Neighs:         536710 ave      798273 max      198736 min
Histogram: 1 0 0 1 0 0 0 0 0 2

Total # of neighbors = 2146840
Ave neighs/atom = 497.99119
Ave special neighs/atom = 0.029227557
Neighbor list builds = 1944
Dangerous builds = 0

  unfix swp
  thermo_style custom step temp pe

next temp
jump SELF minimize_temp

  variable ftemp equal v_temp

  # Electrostatic relaxation
  fix swp swpFe atom/swap 1 1 ${rand} ${temp} ke no types 6 7
  fix swp swpFe atom/swap 1 1 6067438 ${temp} ke no types 6 7
  fix swp swpFe atom/swap 1 1 6067438 2904 ke no types 6 7
  thermo 100
  thermo_style custom step v_ftemp pe f_swp[1] f_swp[2]
  run ${nsteps}
  run 972
WARNING: No fixes with time integration, atoms won't move (../verlet.cpp:60)
PPPM initialization ...
  using 12-bit tables for long-range coulomb (../kspace.cpp:340)
  G vector (1/distance) = 0.29499995
  grid = 45 45 250
  stencil order = 5
  estimated absolute RMS force accuracy = 0.00038527262
  estimated relative force accuracy = 1.160237e-06
  using double precision KISS FFT
  3d grid and FFT values/proc = 554040 378675
  generated 45 of 45 mixed pair_coeff terms from arithmetic mixing rule
Per MPI rank memory allocation (min/avg/max) = 24.35 | 35.11 | 63.71 Mbytes
Step v_ftemp PotEng f_swp[1] f_swp[2] 
   26244         2904   -786929.08            0            0 
   26300         2904   -786945.26           56            3 
   26400         2904   -786955.37          156            8 
   26500         2904   -786980.05          256           12 
   26600         2904   -787006.27          356           15 
   26700         2904    -787005.2          456           18 
   26800         2904   -786991.96          556           20 
   26900         2904   -786991.96          656           20 
   27000         2904   -786970.16          756           26 
   27100         2904   -786981.25          856           28 
   27200         2904    -786988.5          956           30 
   27216         2904    -786988.5          972           30 
Loop time of 269.69 on 4 procs for 972 steps with 4311 atoms

Performance: 0.156 ns/day, 154.144 hours/ns, 3.604 timesteps/s
94.2% CPU use with 4 MPI tasks x no OpenMP threads

MPI task timing breakdown:
Section |  min time  |  avg time  |  max time  |%varavg| %total
---------------------------------------------------------------
Pair    | 2.853      | 7.4092     | 11.047     | 126.1 |  2.75
Bond    | 0.0013136  | 0.0030951  | 0.0075797  |   4.7 |  0.00
Kspace  | 64.538     | 68.174     | 72.737     |  41.6 | 25.28
Neigh   | 16.931     | 16.956     | 16.994     |   0.6 |  6.29
Comm    | 0.44297    | 0.48885    | 0.52795    |   4.9 |  0.18
Output  | 0.00021789 | 0.00060368 | 0.0015778  |   0.0 |  0.00
Modify  | 176.62     | 176.63     | 176.65     |   0.1 | 65.50
Other   |            | 0.02428    |            |       |  0.01

Nlocal:        1077.75 ave        1494 max         657 min
Histogram: 1 1 0 0 0 0 0 0 1 1
Nghost:        8908.25 ave       11934 max        5689 min
Histogram: 1 1 0 0 0 0 0 0 0 2
Neighs:         536710 ave      798273 max      198736 min
Histogram: 1 0 0 1 0 0 0 0 0 2

Total # of neighbors = 2146840
Ave neighs/atom = 497.99119
Ave special neighs/atom = 0.029227557
Neighbor list builds = 1944
Dangerous builds = 0

  unfix swp
  thermo_style custom step temp pe

next temp
jump SELF minimize_temp

  variable ftemp equal v_temp

  # Electrostatic relaxation
  fix swp swpFe atom/swap 1 1 ${rand} ${temp} ke no types 6 7
  fix swp swpFe atom/swap 1 1 3316115 ${temp} ke no types 6 7
  fix swp swpFe atom/swap 1 1 3316115 2613 ke no types 6 7
  thermo 100
  thermo_style custom step v_ftemp pe f_swp[1] f_swp[2]
  run ${nsteps}
  run 972
WARNING: No fixes with time integration, atoms won't move (../verlet.cpp:60)
PPPM initialization ...
  using 12-bit tables for long-range coulomb (../kspace.cpp:340)
  G vector (1/distance) = 0.29499995
  grid = 45 45 250
  stencil order = 5
  estimated absolute RMS force accuracy = 0.00038527262
  estimated relative force accuracy = 1.160237e-06
  using double precision KISS FFT
  3d grid and FFT values/proc = 554040 378675
  generated 45 of 45 mixed pair_coeff terms from arithmetic mixing rule
Per MPI rank memory allocation (min/avg/max) = 24.35 | 35.11 | 63.71 Mbytes
Step v_ftemp PotEng f_swp[1] f_swp[2] 
   27216         2613    -786988.5            0            0 
   27300         2613   -786997.13           84            3 
   27400         2613   -786998.31          184            5 
   27500         2613   -786999.27          284            6 
   27600         2613   -786999.27          384            6 
   27700         2613   -786999.27          484            6 
   27800         2613   -786999.27          584            6 
   27900         2613   -787000.02          684            8 
   28000         2613   -786998.33          784           10 
   28100         2613   -786996.33          884           14 
   28188         2613    -786957.2          972           19 
Loop time of 262.807 on 4 procs for 972 steps with 4311 atoms

Performance: 0.160 ns/day, 150.210 hours/ns, 3.699 timesteps/s
94.5% CPU use with 4 MPI tasks x no OpenMP threads

MPI task timing breakdown:
Section |  min time  |  avg time  |  max time  |%varavg| %total
---------------------------------------------------------------
Pair    | 2.8914     | 7.4861     | 11.108     | 126.5 |  2.85
Bond    | 0.0011797  | 0.00327    | 0.0084583  |   5.3 |  0.00
Kspace  | 60.433     | 64.06      | 68.656     |  43.3 | 24.38
Neigh   | 17.097     | 17.124     | 17.165     |   0.7 |  6.52
Comm    | 0.46657    | 0.52086    | 0.5555     |   5.1 |  0.20
Output  | 0.00021753 | 0.00052391 | 0.0012611  |   0.0 |  0.00
Modify  | 173.57     | 173.58     | 173.6      |   0.1 | 66.05
Other   |            | 0.02789    |            |       |  0.01

Nlocal:        1077.75 ave        1494 max         657 min
Histogram: 1 1 0 0 0 0 0 0 1 1
Nghost:        8908.25 ave       11934 max        5689 min
Histogram: 1 1 0 0 0 0 0 0 0 2
Neighs:         536710 ave      798273 max      198736 min
Histogram: 1 0 0 1 0 0 0 0 0 2

Total # of neighbors = 2146840
Ave neighs/atom = 497.99119
Ave special neighs/atom = 0.029227557
Neighbor list builds = 1944
Dangerous builds = 0

  unfix swp
  thermo_style custom step temp pe

next temp
jump SELF minimize_temp

  variable ftemp equal v_temp

  # Electrostatic relaxation
  fix swp swpFe atom/swap 1 1 ${rand} ${temp} ke no types 6 7
  fix swp swpFe atom/swap 1 1 9343451 ${temp} ke no types 6 7
  fix swp swpFe atom/swap 1 1 9343451 2351 ke no types 6 7
  thermo 100
  thermo_style custom step v_ftemp pe f_swp[1] f_swp[2]
  run ${nsteps}
  run 972
WARNING: No fixes with time integration, atoms won't move (../verlet.cpp:60)
PPPM initialization ...
  using 12-bit tables for long-range coulomb (../kspace.cpp:340)
  G vector (1/distance) = 0.29499995
  grid = 45 45 250
  stencil order = 5
  estimated absolute RMS force accuracy = 0.00038527262
  estimated relative force accuracy = 1.160237e-06
  using double precision KISS FFT
  3d grid and FFT values/proc = 554040 378675
  generated 45 of 45 mixed pair_coeff terms from arithmetic mixing rule
Per MPI rank memory allocation (min/avg/max) = 24.35 | 35.11 | 63.71 Mbytes
Step v_ftemp PotEng f_swp[1] f_swp[2] 
   28188         2351    -786957.2            0            0 
   28200         2351    -786957.2           12            0 
   28300         2351   -786933.53          112            3 
   28400         2351   -786956.93          212            6 
   28500         2351   -786956.93          312            6 
   28600         2351   -786968.73          412            8 
   28700         2351   -786995.35          512           13 
   28800         2351   -786996.24          612           14 
   28900         2351      -786992          712           18 
   29000         2351      -786992          812           18 
   29100         2351   -786996.03          912           21 
   29160         2351   -786988.21          972           24 
Loop time of 262.67 on 4 procs for 972 steps with 4311 atoms

Performance: 0.160 ns/day, 150.132 hours/ns, 3.700 timesteps/s
94.3% CPU use with 4 MPI tasks x no OpenMP threads

MPI task timing breakdown:
Section |  min time  |  avg time  |  max time  |%varavg| %total
---------------------------------------------------------------
Pair    | 2.9227     | 7.585      | 11.251     | 127.6 |  2.89
Bond    | 0.0015488  | 0.0036669  | 0.0089821  |   5.1 |  0.00
Kspace  | 60.41      | 64.081     | 68.745     |  43.9 | 24.40
Neigh   | 17.142     | 17.168     | 17.205     |   0.6 |  6.54
Comm    | 0.44371    | 0.49317    | 0.52545    |   4.9 |  0.19
Output  | 0.00023243 | 0.00058373 | 0.0014169  |   0.0 |  0.00
Modify  | 173.3      | 173.31     | 173.32     |   0.1 | 65.98
Other   |            | 0.02973    |            |       |  0.01

Nlocal:        1077.75 ave        1494 max         657 min
Histogram: 1 1 0 0 0 0 0 0 1 1
Nghost:        8908.25 ave       11934 max        5689 min
Histogram: 1 1 0 0 0 0 0 0 0 2
Neighs:         536710 ave      798273 max      198736 min
Histogram: 1 0 0 1 0 0 0 0 0 2

Total # of neighbors = 2146840
Ave neighs/atom = 497.99119
Ave special neighs/atom = 0.029227557
Neighbor list builds = 1944
Dangerous builds = 0

  unfix swp
  thermo_style custom step temp pe

next temp
jump SELF minimize_temp

  variable ftemp equal v_temp

  # Electrostatic relaxation
  fix swp swpFe atom/swap 1 1 ${rand} ${temp} ke no types 6 7
  fix swp swpFe atom/swap 1 1 9813187 ${temp} ke no types 6 7
  fix swp swpFe atom/swap 1 1 9813187 2115 ke no types 6 7
  thermo 100
  thermo_style custom step v_ftemp pe f_swp[1] f_swp[2]
  run ${nsteps}
  run 972
WARNING: No fixes with time integration, atoms won't move (../verlet.cpp:60)
PPPM initialization ...
  using 12-bit tables for long-range coulomb (../kspace.cpp:340)
  G vector (1/distance) = 0.29499995
  grid = 45 45 250
  stencil order = 5
  estimated absolute RMS force accuracy = 0.00038527262
  estimated relative force accuracy = 1.160237e-06
  using double precision KISS FFT
  3d grid and FFT values/proc = 554040 378675
  generated 45 of 45 mixed pair_coeff terms from arithmetic mixing rule
Per MPI rank memory allocation (min/avg/max) = 24.35 | 35.11 | 63.71 Mbytes
Step v_ftemp PotEng f_swp[1] f_swp[2] 
   29160         2115   -786988.21            0            0 
   29200         2115    -786991.2           40            2 
   29300         2115   -786992.32          140            6 
   29400         2115   -786990.67          240            9 
   29500         2115   -786979.71          340           11 
   29600         2115   -786981.56          440           13 
   29700         2115   -786981.56          540           13 
   29800         2115   -786981.56          640           13 
   29900         2115   -786982.32          740           14 
   30000         2115   -786980.75          840           15 
   30100         2115   -786983.54          940           17 
   30132         2115    -786986.3          972           18 
Loop time of 270.037 on 4 procs for 972 steps with 4311 atoms

Performance: 0.155 ns/day, 154.342 hours/ns, 3.600 timesteps/s
94.2% CPU use with 4 MPI tasks x no OpenMP threads

MPI task timing breakdown:
Section |  min time  |  avg time  |  max time  |%varavg| %total
---------------------------------------------------------------
Pair    | 2.8128     | 7.3475     | 10.889     | 125.7 |  2.72
Bond    | 0.0012566  | 0.0030392  | 0.0074437  |   4.6 |  0.00
Kspace  | 64.749     | 68.293     | 72.829     |  41.3 | 25.29
Neigh   | 16.804     | 16.831     | 16.869     |   0.7 |  6.23
Comm    | 0.44265    | 0.49359    | 0.52666    |   5.0 |  0.18
Output  | 0.00022243 | 0.00054426 | 0.0013357  |   0.0 |  0.00
Modify  | 177.03     | 177.05     | 177.06     |   0.1 | 65.56
Other   |            | 0.02362    |            |       |  0.01

Nlocal:        1077.75 ave        1494 max         657 min
Histogram: 1 1 0 0 0 0 0 0 1 1
Nghost:        8908.25 ave       11934 max        5689 min
Histogram: 1 1 0 0 0 0 0 0 0 2
Neighs:         536710 ave      798273 max      198736 min
Histogram: 1 0 0 1 0 0 0 0 0 2

Total # of neighbors = 2146840
Ave neighs/atom = 497.99119
Ave special neighs/atom = 0.029227557
Neighbor list builds = 1944
Dangerous builds = 0

  unfix swp
  thermo_style custom step temp pe

next temp
jump SELF minimize_temp

  variable ftemp equal v_temp

  # Electrostatic relaxation
  fix swp swpFe atom/swap 1 1 ${rand} ${temp} ke no types 6 7
  fix swp swpFe atom/swap 1 1 3669492 ${temp} ke no types 6 7
  fix swp swpFe atom/swap 1 1 3669492 1903 ke no types 6 7
  thermo 100
  thermo_style custom step v_ftemp pe f_swp[1] f_swp[2]
  run ${nsteps}
  run 972
WARNING: No fixes with time integration, atoms won't move (../verlet.cpp:60)
PPPM initialization ...
  using 12-bit tables for long-range coulomb (../kspace.cpp:340)
  G vector (1/distance) = 0.29499995
  grid = 45 45 250
  stencil order = 5
  estimated absolute RMS force accuracy = 0.00038527262
  estimated relative force accuracy = 1.160237e-06
  using double precision KISS FFT
  3d grid and FFT values/proc = 554040 378675
  generated 45 of 45 mixed pair_coeff terms from arithmetic mixing rule
Per MPI rank memory allocation (min/avg/max) = 24.35 | 35.11 | 63.71 Mbytes
Step v_ftemp PotEng f_swp[1] f_swp[2] 
   30132         1903    -786986.3            0            0 
   30200         1903   -786983.82           68            2 
   30300         1903   -786987.24          168            5 
   30400         1903   -786999.17          268            8 
   30500         1903   -786999.85          368           10 
   30600         1903   -786989.97          468           12 
   30700         1903    -787004.5          568           19 
   30800         1903    -787004.5          668           19 
   30900         1903   -787000.66          768           24 
   31000         1903   -787001.18          868           25 
   31100         1903    -787002.6          968           26 
   31104         1903    -787002.6          972           26 
Loop time of 267.503 on 4 procs for 972 steps with 4311 atoms

Performance: 0.157 ns/day, 152.894 hours/ns, 3.634 timesteps/s
94.1% CPU use with 4 MPI tasks x no OpenMP threads

MPI task timing breakdown:
Section |  min time  |  avg time  |  max time  |%varavg| %total
---------------------------------------------------------------
Pair    | 2.8859     | 7.4482     | 11.024     | 125.5 |  2.78
Bond    | 0.0014174  | 0.0033389  | 0.0082921  |   5.0 |  0.00
Kspace  | 64.226     | 67.807     | 72.369     |  41.6 | 25.35
Neigh   | 16.92      | 16.946     | 16.983     |   0.6 |  6.33
Comm    | 0.433      | 0.48526    | 0.52024    |   5.1 |  0.18
Output  | 0.00023687 | 0.00051251 | 0.0012402  |   0.0 |  0.00
Modify  | 174.78     | 174.79     | 174.8      |   0.1 | 65.34
Other   |            | 0.02575    |            |       |  0.01

Nlocal:        1077.75 ave        1494 max         657 min
Histogram: 1 1 0 0 0 0 0 0 1 1
Nghost:        8908.25 ave       11934 max        5689 min
Histogram: 1 1 0 0 0 0 0 0 0 2
Neighs:         536710 ave      798273 max      198736 min
Histogram: 1 0 0 1 0 0 0 0 0 2

Total # of neighbors = 2146840
Ave neighs/atom = 497.99119
Ave special neighs/atom = 0.029227557
Neighbor list builds = 1944
Dangerous builds = 0

  unfix swp
  thermo_style custom step temp pe

next temp
jump SELF minimize_temp

  variable ftemp equal v_temp

  # Electrostatic relaxation
  fix swp swpFe atom/swap 1 1 ${rand} ${temp} ke no types 6 7
  fix swp swpFe atom/swap 1 1 4337234 ${temp} ke no types 6 7
  fix swp swpFe atom/swap 1 1 4337234 1712 ke no types 6 7
  thermo 100
  thermo_style custom step v_ftemp pe f_swp[1] f_swp[2]
  run ${nsteps}
  run 972
WARNING: No fixes with time integration, atoms won't move (../verlet.cpp:60)
PPPM initialization ...
  using 12-bit tables for long-range coulomb (../kspace.cpp:340)
  G vector (1/distance) = 0.29499995
  grid = 45 45 250
  stencil order = 5
  estimated absolute RMS force accuracy = 0.00038527262
  estimated relative force accuracy = 1.160237e-06
  using double precision KISS FFT
  3d grid and FFT values/proc = 554040 378675
  generated 45 of 45 mixed pair_coeff terms from arithmetic mixing rule
Per MPI rank memory allocation (min/avg/max) = 24.35 | 35.11 | 63.71 Mbytes
Step v_ftemp PotEng f_swp[1] f_swp[2] 
   31104         1712    -787002.6            0            0 
   31200         1712    -787002.6           96            0 
   31300         1712   -786994.43          196            2 
   31400         1712    -786993.9          296            3 
   31500         1712   -786995.64          396            4 
   31600         1712   -786994.03          496            5 
   31700         1712   -786991.47          596            8 
   31800         1712   -786991.47          696            8 
   31900         1712   -786994.08          796           11 
   32000         1712   -786994.08          896           11 
   32076         1712   -786983.45          972           14 
Loop time of 266.367 on 4 procs for 972 steps with 4311 atoms

Performance: 0.158 ns/day, 152.244 hours/ns, 3.649 timesteps/s
94.5% CPU use with 4 MPI tasks x no OpenMP threads

MPI task timing breakdown:
Section |  min time  |  avg time  |  max time  |%varavg| %total
---------------------------------------------------------------
Pair    | 2.904      | 7.4687     | 11.039     | 126.0 |  2.80
Bond    | 0.0014568  | 0.0033074  | 0.0085372  |   5.3 |  0.00
Kspace  | 62.774     | 66.35      | 70.915     |  42.3 | 24.91
Neigh   | 16.858     | 16.883     | 16.92      |   0.6 |  6.34
Comm    | 0.42593    | 0.4762     | 0.50974    |   5.0 |  0.18
Output  | 0.00021152 | 0.00051718 | 0.0012993  |   0.0 |  0.00
Modify  | 175.15     | 175.16     | 175.17     |   0.1 | 65.76
Other   |            | 0.0275     |            |       |  0.01

Nlocal:        1077.75 ave        1494 max         657 min
Histogram: 1 1 0 0 0 0 0 0 1 1
Nghost:        8908.25 ave       11934 max        5689 min
Histogram: 1 1 0 0 0 0 0 0 0 2
Neighs:         536710 ave      798273 max      198736 min
Histogram: 1 0 0 1 0 0 0 0 0 2

Total # of neighbors = 2146840
Ave neighs/atom = 497.99119
Ave special neighs/atom = 0.029227557
Neighbor list builds = 1944
Dangerous builds = 0

  unfix swp
  thermo_style custom step temp pe

next temp
jump SELF minimize_temp

  variable ftemp equal v_temp

  # Electrostatic relaxation
  fix swp swpFe atom/swap 1 1 ${rand} ${temp} ke no types 6 7
  fix swp swpFe atom/swap 1 1 8737738 ${temp} ke no types 6 7
  fix swp swpFe atom/swap 1 1 8737738 1540 ke no types 6 7
  thermo 100
  thermo_style custom step v_ftemp pe f_swp[1] f_swp[2]
  run ${nsteps}
  run 972
WARNING: No fixes with time integration, atoms won't move (../verlet.cpp:60)
PPPM initialization ...
  using 12-bit tables for long-range coulomb (../kspace.cpp:340)
  G vector (1/distance) = 0.29499995
  grid = 45 45 250
  stencil order = 5
  estimated absolute RMS force accuracy = 0.00038527262
  estimated relative force accuracy = 1.160237e-06
  using double precision KISS FFT
  3d grid and FFT values/proc = 554040 378675
  generated 45 of 45 mixed pair_coeff terms from arithmetic mixing rule
Per MPI rank memory allocation (min/avg/max) = 24.35 | 35.11 | 63.71 Mbytes
Step v_ftemp PotEng f_swp[1] f_swp[2] 
   32076         1540   -786983.45            0            0 
   32100         1540   -786959.05           24            2 
   32200         1540   -786975.81          124            7 
   32300         1540   -786980.73          224           11 
   32400         1540   -786984.22          324           14 
   32500         1540   -786988.11          424           16 
   32600         1540   -786988.11          524           16 
   32700         1540    -786996.8          624           20 
   32800         1540    -786998.8          724           22 
   32900         1540   -787003.82          824           25 
   33000         1540   -787003.63          924           27 
   33048         1540   -787003.63          972           27 
Loop time of 269.102 on 4 procs for 972 steps with 4311 atoms

Performance: 0.156 ns/day, 153.808 hours/ns, 3.612 timesteps/s
94.1% CPU use with 4 MPI tasks x no OpenMP threads

MPI task timing breakdown:
Section |  min time  |  avg time  |  max time  |%varavg| %total
---------------------------------------------------------------
Pair    | 2.8578     | 7.4238     | 10.937     | 125.6 |  2.76
Bond    | 0.001468   | 0.0031639  | 0.0081075  |   5.1 |  0.00
Kspace  | 63.67      | 67.187     | 71.754     |  41.8 | 24.97
Neigh   | 16.935     | 16.961     | 17.001     |   0.7 |  6.30
Comm    | 0.44383    | 0.49708    | 0.53063    |   5.1 |  0.18
Output  | 0.00021143 | 0.0004521  | 0.0010238  |   0.0 |  0.00
Modify  | 176.99     | 177        | 177.02     |   0.1 | 65.78
Other   |            | 0.02647    |            |       |  0.01

Nlocal:        1077.75 ave        1494 max         657 min
Histogram: 1 1 0 0 0 0 0 0 1 1
Nghost:        8908.25 ave       11934 max        5689 min
Histogram: 1 1 0 0 0 0 0 0 0 2
Neighs:         536710 ave      798273 max      198736 min
Histogram: 1 0 0 1 0 0 0 0 0 2

Total # of neighbors = 2146840
Ave neighs/atom = 497.99119
Ave special neighs/atom = 0.029227557
Neighbor list builds = 1944
Dangerous builds = 0

  unfix swp
  thermo_style custom step temp pe

next temp
jump SELF minimize_temp

  variable ftemp equal v_temp

  # Electrostatic relaxation
  fix swp swpFe atom/swap 1 1 ${rand} ${temp} ke no types 6 7
  fix swp swpFe atom/swap 1 1 9296387 ${temp} ke no types 6 7
  fix swp swpFe atom/swap 1 1 9296387 1386 ke no types 6 7
  thermo 100
  thermo_style custom step v_ftemp pe f_swp[1] f_swp[2]
  run ${nsteps}
  run 972
WARNING: No fixes with time integration, atoms won't move (../verlet.cpp:60)
PPPM initialization ...
  using 12-bit tables for long-range coulomb (../kspace.cpp:340)
  G vector (1/distance) = 0.29499995
  grid = 45 45 250
  stencil order = 5
  estimated absolute RMS force accuracy = 0.00038527262
  estimated relative force accuracy = 1.160237e-06
  using double precision KISS FFT
  3d grid and FFT values/proc = 554040 378675
  generated 45 of 45 mixed pair_coeff terms from arithmetic mixing rule
Per MPI rank memory allocation (min/avg/max) = 24.35 | 35.11 | 63.71 Mbytes
Step v_ftemp PotEng f_swp[1] f_swp[2] 
   33048         1386   -787003.63            0            0 
   33100         1386   -787006.26           52            1 
   33200         1386   -787006.26          152            1 
   33300         1386   -787006.26          252            1 
   33400         1386   -787006.26          352            1 
   33500         1386   -787006.26          452            1 
   33600         1386   -787006.26          552            1 
   33700         1386   -787006.26          652            1 
   33800         1386   -787006.26          752            1 
   33900         1386   -787006.26          852            1 
   34000         1386   -787006.16          952            2 
   34020         1386   -787003.81          972            3 
Loop time of 269.001 on 4 procs for 972 steps with 4311 atoms

Performance: 0.156 ns/day, 153.750 hours/ns, 3.613 timesteps/s
94.4% CPU use with 4 MPI tasks x no OpenMP threads

MPI task timing breakdown:
Section |  min time  |  avg time  |  max time  |%varavg| %total
---------------------------------------------------------------
Pair    | 2.8231     | 7.3884     | 10.915     | 125.8 |  2.75
Bond    | 0.001463   | 0.003061   | 0.00765    |   4.8 |  0.00
Kspace  | 64.103     | 67.634     | 72.199     |  41.6 | 25.14
Neigh   | 16.695     | 16.728     | 16.768     |   0.7 |  6.22
Comm    | 0.42737    | 0.48085    | 0.5195     |   5.3 |  0.18
Output  | 0.0002422  | 0.00057475 | 0.0013717  |   0.0 |  0.00
Modify  | 176.73     | 176.74     | 176.76     |   0.1 | 65.70
Other   |            | 0.02282    |            |       |  0.01

Nlocal:        1077.75 ave        1494 max         657 min
Histogram: 1 1 0 0 0 0 0 0 1 1
Nghost:        8908.25 ave       11934 max        5689 min
Histogram: 1 1 0 0 0 0 0 0 0 2
Neighs:         536710 ave      798273 max      198736 min
Histogram: 1 0 0 1 0 0 0 0 0 2

Total # of neighbors = 2146840
Ave neighs/atom = 497.99119
Ave special neighs/atom = 0.029227557
Neighbor list builds = 1944
Dangerous builds = 0

  unfix swp
  thermo_style custom step temp pe

next temp
jump SELF minimize_temp

  variable ftemp equal v_temp

  # Electrostatic relaxation
  fix swp swpFe atom/swap 1 1 ${rand} ${temp} ke no types 6 7
  fix swp swpFe atom/swap 1 1 9088774 ${temp} ke no types 6 7
  fix swp swpFe atom/swap 1 1 9088774 1247 ke no types 6 7
  thermo 100
  thermo_style custom step v_ftemp pe f_swp[1] f_swp[2]
  run ${nsteps}
  run 972
WARNING: No fixes with time integration, atoms won't move (../verlet.cpp:60)
PPPM initialization ...
  using 12-bit tables for long-range coulomb (../kspace.cpp:340)
  G vector (1/distance) = 0.29499995
  grid = 45 45 250
  stencil order = 5
  estimated absolute RMS force accuracy = 0.00038527262
  estimated relative force accuracy = 1.160237e-06
  using double precision KISS FFT
  3d grid and FFT values/proc = 554040 378675
  generated 45 of 45 mixed pair_coeff terms from arithmetic mixing rule
Per MPI rank memory allocation (min/avg/max) = 24.35 | 35.11 | 63.71 Mbytes
Step v_ftemp PotEng f_swp[1] f_swp[2] 
   34020         1247   -787003.81            0            0 
   34100         1247    -787009.8           80            2 
   34200         1247    -787009.8          180            2 
   34300         1247    -787009.8          280            2 
   34400         1247    -787009.8          380            2 
   34500         1247    -787009.8          480            2 
   34600         1247   -787003.93          580            4 
   34700         1247   -787008.86          680            5 
   34800         1247   -787008.86          780            5 
   34900         1247   -787008.86          880            5 
   34992         1247   -787004.64          972            6 
Loop time of 269.794 on 4 procs for 972 steps with 4311 atoms

Performance: 0.156 ns/day, 154.203 hours/ns, 3.603 timesteps/s
94.6% CPU use with 4 MPI tasks x no OpenMP threads

MPI task timing breakdown:
Section |  min time  |  avg time  |  max time  |%varavg| %total
---------------------------------------------------------------
Pair    | 2.8268     | 7.4044     | 11.065     | 126.3 |  2.74
Bond    | 0.0012098  | 0.0029425  | 0.0076616  |   5.0 |  0.00
Kspace  | 63.852     | 67.517     | 72.095     |  41.9 | 25.03
Neigh   | 16.805     | 16.832     | 16.873     |   0.7 |  6.24
Comm    | 0.44677    | 0.50088    | 0.53544    |   5.1 |  0.19
Output  | 0.00020789 | 0.00050831 | 0.0012582  |   0.0 |  0.00
Modify  | 177.5      | 177.51     | 177.53     |   0.1 | 65.79
Other   |            | 0.02614    |            |       |  0.01

Nlocal:        1077.75 ave        1494 max         657 min
Histogram: 1 1 0 0 0 0 0 0 1 1
Nghost:        8908.25 ave       11934 max        5689 min
Histogram: 1 1 0 0 0 0 0 0 0 2
Neighs:         536710 ave      798273 max      198736 min
Histogram: 1 0 0 1 0 0 0 0 0 2

Total # of neighbors = 2146840
Ave neighs/atom = 497.99119
Ave special neighs/atom = 0.029227557
Neighbor list builds = 1944
Dangerous builds = 0

  unfix swp
  thermo_style custom step temp pe

next temp
jump SELF minimize_temp

  variable ftemp equal v_temp

  # Electrostatic relaxation
  fix swp swpFe atom/swap 1 1 ${rand} ${temp} ke no types 6 7
  fix swp swpFe atom/swap 1 1 5675456 ${temp} ke no types 6 7
  fix swp swpFe atom/swap 1 1 5675456 1122 ke no types 6 7
  thermo 100
  thermo_style custom step v_ftemp pe f_swp[1] f_swp[2]
  run ${nsteps}
  run 972
WARNING: No fixes with time integration, atoms won't move (../verlet.cpp:60)
PPPM initialization ...
  using 12-bit tables for long-range coulomb (../kspace.cpp:340)
  G vector (1/distance) = 0.29499995
  grid = 45 45 250
  stencil order = 5
  estimated absolute RMS force accuracy = 0.00038527262
  estimated relative force accuracy = 1.160237e-06
  using double precision KISS FFT
  3d grid and FFT values/proc = 554040 378675
  generated 45 of 45 mixed pair_coeff terms from arithmetic mixing rule
Per MPI rank memory allocation (min/avg/max) = 24.35 | 35.11 | 63.71 Mbytes
Step v_ftemp PotEng f_swp[1] f_swp[2] 
   34992         1122   -787004.64            0            0 
   35000         1122   -787004.64            8            0 
   35100         1122   -787005.49          108            1 
   35200         1122   -787005.49          208            1 
   35300         1122   -787005.49          308            1 
   35400         1122   -787005.49          408            1 
   35500         1122   -787005.49          508            1 
   35600         1122   -787005.49          608            1 
   35700         1122   -787006.75          708            2 
   35800         1122   -787006.75          808            2 
   35900         1122   -787006.75          908            2 
   35964         1122   -787003.26          972            4 
Loop time of 264.315 on 4 procs for 972 steps with 4311 atoms

Performance: 0.159 ns/day, 151.071 hours/ns, 3.677 timesteps/s
94.3% CPU use with 4 MPI tasks x no OpenMP threads

MPI task timing breakdown:
Section |  min time  |  avg time  |  max time  |%varavg| %total
---------------------------------------------------------------
Pair    | 2.9175     | 7.5211     | 11.135     | 126.0 |  2.85
Bond    | 0.0015614  | 0.0036186  | 0.0088334  |   5.0 |  0.00
Kspace  | 62.325     | 65.942     | 70.547     |  42.6 | 24.95
Neigh   | 16.944     | 16.969     | 17.005     |   0.6 |  6.42
Comm    | 0.41391    | 0.46011    | 0.49103    |   4.8 |  0.17
Output  | 0.00020292 | 0.00052145 | 0.0013195  |   0.0 |  0.00
Modify  | 173.38     | 173.39     | 173.4      |   0.1 | 65.60
Other   |            | 0.02744    |            |       |  0.01

Nlocal:        1077.75 ave        1494 max         657 min
Histogram: 1 1 0 0 0 0 0 0 1 1
Nghost:        8908.25 ave       11934 max        5689 min
Histogram: 1 1 0 0 0 0 0 0 0 2
Neighs:         536710 ave      798273 max      198736 min
Histogram: 1 0 0 1 0 0 0 0 0 2

Total # of neighbors = 2146840
Ave neighs/atom = 497.99119
Ave special neighs/atom = 0.029227557
Neighbor list builds = 1944
Dangerous builds = 0

  unfix swp
  thermo_style custom step temp pe

next temp
jump SELF minimize_temp

  variable ftemp equal v_temp

  # Electrostatic relaxation
  fix swp swpFe atom/swap 1 1 ${rand} ${temp} ke no types 6 7
  fix swp swpFe atom/swap 1 1 129625 ${temp} ke no types 6 7
  fix swp swpFe atom/swap 1 1 129625 1009 ke no types 6 7
  thermo 100
  thermo_style custom step v_ftemp pe f_swp[1] f_swp[2]
  run ${nsteps}
  run 972
WARNING: No fixes with time integration, atoms won't move (../verlet.cpp:60)
PPPM initialization ...
  using 12-bit tables for long-range coulomb (../kspace.cpp:340)
  G vector (1/distance) = 0.29499995
  grid = 45 45 250
  stencil order = 5
  estimated absolute RMS force accuracy = 0.00038527262
  estimated relative force accuracy = 1.160237e-06
  using double precision KISS FFT
  3d grid and FFT values/proc = 554040 378675
  generated 45 of 45 mixed pair_coeff terms from arithmetic mixing rule
Per MPI rank memory allocation (min/avg/max) = 24.35 | 35.11 | 63.71 Mbytes
Step v_ftemp PotEng f_swp[1] f_swp[2] 
   35964         1009   -787003.26            0            0 
   36000         1009   -787005.45           36            1 
   36100         1009   -787005.45          136            1 
   36200         1009   -787007.62          236            2 
   36300         1009   -787007.62          336            2 
   36400         1009   -787007.62          436            2 
   36500         1009   -787007.62          536            4 
   36600         1009   -787007.62          636            4 
   36700         1009    -787004.8          736            6 
   36800         1009    -787004.8          836            6 
   36900         1009    -787004.8          936            6 
   36936         1009   -787002.02          972            7 
Loop time of 264.67 on 4 procs for 972 steps with 4311 atoms

Performance: 0.159 ns/day, 151.274 hours/ns, 3.672 timesteps/s
94.0% CPU use with 4 MPI tasks x no OpenMP threads

MPI task timing breakdown:
Section |  min time  |  avg time  |  max time  |%varavg| %total
---------------------------------------------------------------
Pair    | 2.9194     | 7.5993     | 11.292     | 127.6 |  2.87
Bond    | 0.0017558  | 0.0037147  | 0.0087319  |   4.8 |  0.00
Kspace  | 62.424     | 66.122     | 70.803     |  43.3 | 24.98
Neigh   | 16.975     | 16.999     | 17.035     |   0.6 |  6.42
Comm    | 0.41368    | 0.4624     | 0.49549    |   4.9 |  0.17
Output  | 0.00023863 | 0.00060871 | 0.0014199  |   0.0 |  0.00
Modify  | 173.44     | 173.45     | 173.47     |   0.1 | 65.54
Other   |            | 0.02797    |            |       |  0.01

Nlocal:        1077.75 ave        1494 max         657 min
Histogram: 1 1 0 0 0 0 0 0 1 1
Nghost:        8908.25 ave       11934 max        5689 min
Histogram: 1 1 0 0 0 0 0 0 0 2
Neighs:         536710 ave      798273 max      198736 min
Histogram: 1 0 0 1 0 0 0 0 0 2

Total # of neighbors = 2146840
Ave neighs/atom = 497.99119
Ave special neighs/atom = 0.029227557
Neighbor list builds = 1944
Dangerous builds = 0

  unfix swp
  thermo_style custom step temp pe

next temp
jump SELF minimize_temp

  variable ftemp equal v_temp

  # Electrostatic relaxation
  fix swp swpFe atom/swap 1 1 ${rand} ${temp} ke no types 6 7
  fix swp swpFe atom/swap 1 1 6411397 ${temp} ke no types 6 7
  fix swp swpFe atom/swap 1 1 6411397 908 ke no types 6 7
  thermo 100
  thermo_style custom step v_ftemp pe f_swp[1] f_swp[2]
  run ${nsteps}
  run 972
WARNING: No fixes with time integration, atoms won't move (../verlet.cpp:60)
PPPM initialization ...
  using 12-bit tables for long-range coulomb (../kspace.cpp:340)
  G vector (1/distance) = 0.29499995
  grid = 45 45 250
  stencil order = 5
  estimated absolute RMS force accuracy = 0.00038527262
  estimated relative force accuracy = 1.160237e-06
  using double precision KISS FFT
  3d grid and FFT values/proc = 554040 378675
  generated 45 of 45 mixed pair_coeff terms from arithmetic mixing rule
Per MPI rank memory allocation (min/avg/max) = 24.35 | 35.11 | 63.71 Mbytes
Step v_ftemp PotEng f_swp[1] f_swp[2] 
   36936          908   -787002.02            0            0 
   37000          908   -787002.02           64            0 
   37100          908   -787002.02          164            0 
   37200          908   -787006.23          264            1 
   37300          908   -787006.23          364            1 
   37400          908   -787003.26          464            3 
   37500          908   -787000.96          564            4 
   37600          908   -786997.98          664            5 
   37700          908   -787000.94          764            9 
   37800          908   -787000.94          864            9 
   37900          908   -787000.94          964            9 
   37908          908   -787000.94          972            9 
Loop time of 267.957 on 4 procs for 972 steps with 4311 atoms

Performance: 0.157 ns/day, 153.153 hours/ns, 3.627 timesteps/s
94.0% CPU use with 4 MPI tasks x no OpenMP threads

MPI task timing breakdown:
Section |  min time  |  avg time  |  max time  |%varavg| %total
---------------------------------------------------------------
Pair    | 2.8487     | 7.4691     | 11.072     | 126.9 |  2.79
Bond    | 0.0016498  | 0.0034208  | 0.007939   |   4.5 |  0.00
Kspace  | 64.019     | 67.621     | 72.247     |  42.2 | 25.24
Neigh   | 16.851     | 16.876     | 16.913     |   0.6 |  6.30
Comm    | 0.43318    | 0.48103    | 0.51573    |   5.0 |  0.18
Output  | 0.00024232 | 0.00057112 | 0.0014039  |   0.0 |  0.00
Modify  | 175.47     | 175.48     | 175.5      |   0.1 | 65.49
Other   |            | 0.02428    |            |       |  0.01

Nlocal:        1077.75 ave        1494 max         657 min
Histogram: 1 1 0 0 0 0 0 0 1 1
Nghost:        8908.25 ave       11934 max        5689 min
Histogram: 1 1 0 0 0 0 0 0 0 2
Neighs:         536710 ave      798273 max      198736 min
Histogram: 1 0 0 1 0 0 0 0 0 2

Total # of neighbors = 2146840
Ave neighs/atom = 497.99119
Ave special neighs/atom = 0.029227557
Neighbor list builds = 1944
Dangerous builds = 0

  unfix swp
  thermo_style custom step temp pe

next temp
jump SELF minimize_temp

  variable ftemp equal v_temp

  # Electrostatic relaxation
  fix swp swpFe atom/swap 1 1 ${rand} ${temp} ke no types 6 7
  fix swp swpFe atom/swap 1 1 3177600 ${temp} ke no types 6 7
  fix swp swpFe atom/swap 1 1 3177600 817 ke no types 6 7
  thermo 100
  thermo_style custom step v_ftemp pe f_swp[1] f_swp[2]
  run ${nsteps}
  run 972
WARNING: No fixes with time integration, atoms won't move (../verlet.cpp:60)
PPPM initialization ...
  using 12-bit tables for long-range coulomb (../kspace.cpp:340)
  G vector (1/distance) = 0.29499995
  grid = 45 45 250
  stencil order = 5
  estimated absolute RMS force accuracy = 0.00038527262
  estimated relative force accuracy = 1.160237e-06
  using double precision KISS FFT
  3d grid and FFT values/proc = 554040 378675
  generated 45 of 45 mixed pair_coeff terms from arithmetic mixing rule
Per MPI rank memory allocation (min/avg/max) = 24.35 | 35.11 | 63.71 Mbytes
Step v_ftemp PotEng f_swp[1] f_swp[2] 
   37908          817   -787000.94            0            0 
   38000          817   -787004.04           92            2 
   38100          817   -787004.04          192            2 
   38200          817   -787004.04          292            2 
   38300          817   -787004.04          392            2 
   38400          817   -787005.63          492            4 
   38500          817   -787005.63          592            4 
   38600          817   -787004.13          692            6 
   38700          817   -787004.13          792            6 
   38800          817   -787007.92          892            8 
   38880          817   -787007.92          972            8 
Loop time of 270.031 on 4 procs for 972 steps with 4311 atoms

Performance: 0.156 ns/day, 154.339 hours/ns, 3.600 timesteps/s
94.0% CPU use with 4 MPI tasks x no OpenMP threads

MPI task timing breakdown:
Section |  min time  |  avg time  |  max time  |%varavg| %total
---------------------------------------------------------------
Pair    | 2.8586     | 7.4201     | 10.959     | 125.9 |  2.75
Bond    | 0.00124    | 0.0031287  | 0.0073076  |   4.4 |  0.00
Kspace  | 64.659     | 68.2       | 72.764     |  41.6 | 25.26
Neigh   | 16.637     | 16.662     | 16.697     |   0.6 |  6.17
Comm    | 0.41541    | 0.46245    | 0.49487    |   5.0 |  0.17
Output  | 0.00019879 | 0.00050983 | 0.0012865  |   0.0 |  0.00
Modify  | 177.25     | 177.26     | 177.27     |   0.1 | 65.64
Other   |            | 0.02418    |            |       |  0.01

Nlocal:        1077.75 ave        1494 max         657 min
Histogram: 1 1 0 0 0 0 0 0 1 1
Nghost:        8908.25 ave       11934 max        5689 min
Histogram: 1 1 0 0 0 0 0 0 0 2
Neighs:         536710 ave      798273 max      198736 min
Histogram: 1 0 0 1 0 0 0 0 0 2

Total # of neighbors = 2146840
Ave neighs/atom = 497.99119
Ave special neighs/atom = 0.029227557
Neighbor list builds = 1944
Dangerous builds = 0

  unfix swp
  thermo_style custom step temp pe

next temp
jump SELF minimize_temp

  variable ftemp equal v_temp

  # Electrostatic relaxation
  fix swp swpFe atom/swap 1 1 ${rand} ${temp} ke no types 6 7
  fix swp swpFe atom/swap 1 1 8668979 ${temp} ke no types 6 7
  fix swp swpFe atom/swap 1 1 8668979 735 ke no types 6 7
  thermo 100
  thermo_style custom step v_ftemp pe f_swp[1] f_swp[2]
  run ${nsteps}
  run 972
WARNING: No fixes with time integration, atoms won't move (../verlet.cpp:60)
PPPM initialization ...
  using 12-bit tables for long-range coulomb (../kspace.cpp:340)
  G vector (1/distance) = 0.29499995
  grid = 45 45 250
  stencil order = 5
  estimated absolute RMS force accuracy = 0.00038527262
  estimated relative force accuracy = 1.160237e-06
  using double precision KISS FFT
  3d grid and FFT values/proc = 554040 378675
  generated 45 of 45 mixed pair_coeff terms from arithmetic mixing rule
Per MPI rank memory allocation (min/avg/max) = 24.35 | 35.11 | 63.71 Mbytes
Step v_ftemp PotEng f_swp[1] f_swp[2] 
   38880          735   -787007.92            0            0 
   38900          735   -787007.92           20            0 
   39000          735   -787008.15          120            1 
   39100          735   -787008.15          220            1 
   39200          735   -787008.15          320            1 
   39300          735   -787010.02          420            3 
   39400          735   -787007.44          520            4 
   39500          735   -787007.44          620            4 
   39600          735   -787004.87          720            5 
   39700          735   -787009.11          820            8 
   39800          735   -787009.11          920            8 
   39852          735   -787009.11          972            8 
Loop time of 265.124 on 4 procs for 972 steps with 4311 atoms

Performance: 0.158 ns/day, 151.534 hours/ns, 3.666 timesteps/s
94.2% CPU use with 4 MPI tasks x no OpenMP threads

MPI task timing breakdown:
Section |  min time  |  avg time  |  max time  |%varavg| %total
---------------------------------------------------------------
Pair    | 2.9137     | 7.5825     | 11.243     | 127.3 |  2.86
Bond    | 0.0017384  | 0.0038125  | 0.0090539  |   4.9 |  0.00
Kspace  | 62.158     | 65.824     | 70.494     |  43.2 | 24.83
Neigh   | 16.904     | 16.928     | 16.965     |   0.6 |  6.39
Comm    | 0.40401    | 0.45237    | 0.48435    |   4.9 |  0.17
Output  | 0.0002229  | 0.00050982 | 0.0011914  |   0.0 |  0.00
Modify  | 174.29     | 174.3      | 174.32     |   0.1 | 65.74
Other   |            | 0.02838    |            |       |  0.01

Nlocal:        1077.75 ave        1494 max         657 min
Histogram: 1 1 0 0 0 0 0 0 1 1
Nghost:        8908.25 ave       11934 max        5689 min
Histogram: 1 1 0 0 0 0 0 0 0 2
Neighs:         536710 ave      798273 max      198736 min
Histogram: 1 0 0 1 0 0 0 0 0 2

Total # of neighbors = 2146840
Ave neighs/atom = 497.99119
Ave special neighs/atom = 0.029227557
Neighbor list builds = 1944
Dangerous builds = 0

  unfix swp
  thermo_style custom step temp pe

next temp
jump SELF minimize_temp

  variable ftemp equal v_temp

  # Electrostatic relaxation
  fix swp swpFe atom/swap 1 1 ${rand} ${temp} ke no types 6 7
  fix swp swpFe atom/swap 1 1 3076370 ${temp} ke no types 6 7
  fix swp swpFe atom/swap 1 1 3076370 661 ke no types 6 7
  thermo 100
  thermo_style custom step v_ftemp pe f_swp[1] f_swp[2]
  run ${nsteps}
  run 972
WARNING: No fixes with time integration, atoms won't move (../verlet.cpp:60)
PPPM initialization ...
  using 12-bit tables for long-range coulomb (../kspace.cpp:340)
  G vector (1/distance) = 0.29499995
  grid = 45 45 250
  stencil order = 5
  estimated absolute RMS force accuracy = 0.00038527262
  estimated relative force accuracy = 1.160237e-06
  using double precision KISS FFT
  3d grid and FFT values/proc = 554040 378675
  generated 45 of 45 mixed pair_coeff terms from arithmetic mixing rule
Per MPI rank memory allocation (min/avg/max) = 24.35 | 35.11 | 63.71 Mbytes
Step v_ftemp PotEng f_swp[1] f_swp[2] 
   39852          661   -787009.11            0            0 
   39900          661   -787009.11           48            0 
   40000          661   -787009.11          148            0 
   40100          661   -787010.89          248            2 
   40200          661   -787010.89          348            2 
   40300          661   -787010.89          448            2 
   40400          661   -787010.89          548            2 
   40500          661   -787010.89          648            2 
   40600          661   -787010.89          748            2 
   40700          661   -787009.62          848            3 
   40800          661   -787008.79          948            5 
   40824          661   -787008.79          972            5 
Loop time of 265.729 on 4 procs for 972 steps with 4311 atoms

Performance: 0.158 ns/day, 151.880 hours/ns, 3.658 timesteps/s
94.0% CPU use with 4 MPI tasks x no OpenMP threads

MPI task timing breakdown:
Section |  min time  |  avg time  |  max time  |%varavg| %total
---------------------------------------------------------------
Pair    | 2.9477     | 7.6439     | 11.369     | 128.8 |  2.88
Bond    | 0.0015315  | 0.0046917  | 0.012755   |   6.8 |  0.00
Kspace  | 62.318     | 66.043     | 70.741     |  43.9 | 24.85
Neigh   | 16.947     | 16.972     | 17.008     |   0.6 |  6.39
Comm    | 0.40614    | 0.45166    | 0.483      |   4.7 |  0.17
Output  | 0.00025312 | 0.00063826 | 0.001578   |   0.0 |  0.00
Modify  | 174.57     | 174.58     | 174.6      |   0.1 | 65.70
Other   |            | 0.02785    |            |       |  0.01

Nlocal:        1077.75 ave        1494 max         657 min
Histogram: 1 1 0 0 0 0 0 0 1 1
Nghost:        8908.25 ave       11934 max        5689 min
Histogram: 1 1 0 0 0 0 0 0 0 2
Neighs:         536710 ave      798273 max      198736 min
Histogram: 1 0 0 1 0 0 0 0 0 2

Total # of neighbors = 2146840
Ave neighs/atom = 497.99119
Ave special neighs/atom = 0.029227557
Neighbor list builds = 1944
Dangerous builds = 0

  unfix swp
  thermo_style custom step temp pe

next temp
jump SELF minimize_temp

  variable ftemp equal v_temp

  # Electrostatic relaxation
  fix swp swpFe atom/swap 1 1 ${rand} ${temp} ke no types 6 7
  fix swp swpFe atom/swap 1 1 7996883 ${temp} ke no types 6 7
  fix swp swpFe atom/swap 1 1 7996883 594 ke no types 6 7
  thermo 100
  thermo_style custom step v_ftemp pe f_swp[1] f_swp[2]
  run ${nsteps}
  run 972
WARNING: No fixes with time integration, atoms won't move (../verlet.cpp:60)
PPPM initialization ...
  using 12-bit tables for long-range coulomb (../kspace.cpp:340)
  G vector (1/distance) = 0.29499995
  grid = 45 45 250
  stencil order = 5
  estimated absolute RMS force accuracy = 0.00038527262
  estimated relative force accuracy = 1.160237e-06
  using double precision KISS FFT
  3d grid and FFT values/proc = 554040 378675
  generated 45 of 45 mixed pair_coeff terms from arithmetic mixing rule
Per MPI rank memory allocation (min/avg/max) = 24.35 | 35.11 | 63.71 Mbytes
Step v_ftemp PotEng f_swp[1] f_swp[2] 
   40824          594   -787008.79            0            0 
   40900          594   -787008.79           76            0 
   41000          594   -787008.79          176            0 
   41100          594   -787008.79          276            0 
   41200          594   -787009.11          376            2 
   41300          594   -787009.11          476            2 
   41400          594   -787009.11          576            2 
   41500          594   -787010.81          676            3 
   41600          594   -787010.81          776            3 
   41700          594   -787010.81          876            3 
   41796          594   -787010.81          972            3 
Loop time of 266.107 on 4 procs for 972 steps with 4311 atoms

Performance: 0.158 ns/day, 152.096 hours/ns, 3.653 timesteps/s
94.5% CPU use with 4 MPI tasks x no OpenMP threads

MPI task timing breakdown:
Section |  min time  |  avg time  |  max time  |%varavg| %total
---------------------------------------------------------------
Pair    | 2.8191     | 7.3957     | 10.908     | 125.8 |  2.78
Bond    | 0.0012756  | 0.0030027  | 0.0072807  |   4.5 |  0.00
Kspace  | 62.789     | 66.304     | 70.883     |  42.1 | 24.92
Neigh   | 16.92      | 16.948     | 16.988     |   0.7 |  6.37
Comm    | 0.45243    | 0.50775    | 0.54206    |   5.2 |  0.19
Output  | 0.00020095 | 0.00048113 | 0.0011612  |   0.0 |  0.00
Modify  | 174.91     | 174.92     | 174.94     |   0.1 | 65.73
Other   |            | 0.02608    |            |       |  0.01

Nlocal:        1077.75 ave        1494 max         657 min
Histogram: 1 1 0 0 0 0 0 0 1 1
Nghost:        8908.25 ave       11934 max        5689 min
Histogram: 1 1 0 0 0 0 0 0 0 2
Neighs:         536710 ave      798273 max      198736 min
Histogram: 1 0 0 1 0 0 0 0 0 2

Total # of neighbors = 2146840
Ave neighs/atom = 497.99119
Ave special neighs/atom = 0.029227557
Neighbor list builds = 1944
Dangerous builds = 0

  unfix swp
  thermo_style custom step temp pe

next temp
jump SELF minimize_temp

  variable ftemp equal v_temp

  # Electrostatic relaxation
  fix swp swpFe atom/swap 1 1 ${rand} ${temp} ke no types 6 7
  fix swp swpFe atom/swap 1 1 6920765 ${temp} ke no types 6 7
  fix swp swpFe atom/swap 1 1 6920765 534 ke no types 6 7
  thermo 100
  thermo_style custom step v_ftemp pe f_swp[1] f_swp[2]
  run ${nsteps}
  run 972
WARNING: No fixes with time integration, atoms won't move (../verlet.cpp:60)
PPPM initialization ...
  using 12-bit tables for long-range coulomb (../kspace.cpp:340)
  G vector (1/distance) = 0.29499995
  grid = 45 45 250
  stencil order = 5
  estimated absolute RMS force accuracy = 0.00038527262
  estimated relative force accuracy = 1.160237e-06
  using double precision KISS FFT
  3d grid and FFT values/proc = 554040 378675
  generated 45 of 45 mixed pair_coeff terms from arithmetic mixing rule
Per MPI rank memory allocation (min/avg/max) = 24.35 | 35.11 | 63.71 Mbytes
Step v_ftemp PotEng f_swp[1] f_swp[2] 
   41796          534   -787010.81            0            0 
   41800          534   -787010.81            4            0 
   41900          534   -787010.81          104            0 
   42000          534   -787010.81          204            0 
   42100          534   -787010.02          304            1 
   42200          534   -787010.02          404            1 
   42300          534    -787007.9          504            2 
   42400          534   -787005.81          604            3 
   42500          534   -787005.81          704            3 
   42600          534   -787005.82          804            4 
   42700          534   -787005.82          904            4 
   42768          534   -787007.67          972            5 
Loop time of 266.325 on 4 procs for 972 steps with 4311 atoms

Performance: 0.158 ns/day, 152.221 hours/ns, 3.650 timesteps/s
94.3% CPU use with 4 MPI tasks x no OpenMP threads

MPI task timing breakdown:
Section |  min time  |  avg time  |  max time  |%varavg| %total
---------------------------------------------------------------
Pair    | 2.8842     | 7.5521     | 11.222     | 128.0 |  2.84
Bond    | 0.0015567  | 0.0035023  | 0.0083068  |   4.7 |  0.00
Kspace  | 62.473     | 66.149     | 70.816     |  43.3 | 24.84
Neigh   | 16.962     | 16.988     | 17.026     |   0.6 |  6.38
Comm    | 0.43337    | 0.47981    | 0.51473    |   4.6 |  0.18
Output  | 0.00022298 | 0.00051143 | 0.0012195  |   0.0 |  0.00
Modify  | 175.11     | 175.12     | 175.14     |   0.1 | 65.76
Other   |            | 0.02684    |            |       |  0.01

Nlocal:        1077.75 ave        1494 max         657 min
Histogram: 1 1 0 0 0 0 0 0 1 1
Nghost:        8908.25 ave       11934 max        5689 min
Histogram: 1 1 0 0 0 0 0 0 0 2
Neighs:         536710 ave      798273 max      198736 min
Histogram: 1 0 0 1 0 0 0 0 0 2

Total # of neighbors = 2146840
Ave neighs/atom = 497.99119
Ave special neighs/atom = 0.029227557
Neighbor list builds = 1944
Dangerous builds = 0

  unfix swp
  thermo_style custom step temp pe

next temp
jump SELF minimize_temp

  variable ftemp equal v_temp

  # Electrostatic relaxation
  fix swp swpFe atom/swap 1 1 ${rand} ${temp} ke no types 6 7
  fix swp swpFe atom/swap 1 1 4893935 ${temp} ke no types 6 7
  fix swp swpFe atom/swap 1 1 4893935 480 ke no types 6 7
  thermo 100
  thermo_style custom step v_ftemp pe f_swp[1] f_swp[2]
  run ${nsteps}
  run 972
WARNING: No fixes with time integration, atoms won't move (../verlet.cpp:60)
PPPM initialization ...
  using 12-bit tables for long-range coulomb (../kspace.cpp:340)
  G vector (1/distance) = 0.29499995
  grid = 45 45 250
  stencil order = 5
  estimated absolute RMS force accuracy = 0.00038527262
  estimated relative force accuracy = 1.160237e-06
  using double precision KISS FFT
  3d grid and FFT values/proc = 554040 378675
  generated 45 of 45 mixed pair_coeff terms from arithmetic mixing rule
Per MPI rank memory allocation (min/avg/max) = 24.35 | 35.11 | 63.71 Mbytes
Step v_ftemp PotEng f_swp[1] f_swp[2] 
   42768          480   -787007.67            0            0 
   42800          480   -787007.67           32            0 
   42900          480   -787007.67          132            0 
   43000          480   -787007.44          232            1 
   43100          480   -787007.44          332            1 
   43200          480   -787007.44          432            1 
   43300          480   -787007.44          532            1 
   43400          480   -787007.44          632            1 
   43500          480   -787007.44          732            1 
   43600          480   -787007.44          832            1 
   43700          480   -787007.44          932            1 
   43740          480   -787007.44          972            1 
Loop time of 267.285 on 4 procs for 972 steps with 4311 atoms

Performance: 0.157 ns/day, 152.769 hours/ns, 3.637 timesteps/s
94.1% CPU use with 4 MPI tasks x no OpenMP threads

MPI task timing breakdown:
Section |  min time  |  avg time  |  max time  |%varavg| %total
---------------------------------------------------------------
Pair    | 2.8666     | 7.5391     | 11.201     | 127.4 |  2.82
Bond    | 0.0017019  | 0.0035218  | 0.0082761  |   4.6 |  0.00
Kspace  | 63.469     | 67.134     | 71.808     |  42.7 | 25.12
Neigh   | 16.963     | 16.989     | 17.026     |   0.6 |  6.36
Comm    | 0.43793    | 0.48802    | 0.52174    |   5.0 |  0.18
Output  | 0.00022289 | 0.00051702 | 0.0012321  |   0.0 |  0.00
Modify  | 175.09     | 175.1      | 175.12     |   0.1 | 65.51
Other   |            | 0.02628    |            |       |  0.01

Nlocal:        1077.75 ave        1494 max         657 min
Histogram: 1 1 0 0 0 0 0 0 1 1
Nghost:        8908.25 ave       11934 max        5689 min
Histogram: 1 1 0 0 0 0 0 0 0 2
Neighs:         536710 ave      798273 max      198736 min
Histogram: 1 0 0 1 0 0 0 0 0 2

Total # of neighbors = 2146840
Ave neighs/atom = 497.99119
Ave special neighs/atom = 0.029227557
Neighbor list builds = 1944
Dangerous builds = 0

  unfix swp
  thermo_style custom step temp pe

next temp
jump SELF minimize_temp

  variable ftemp equal v_temp

  # Electrostatic relaxation
  fix swp swpFe atom/swap 1 1 ${rand} ${temp} ke no types 6 7
  fix swp swpFe atom/swap 1 1 9244496 ${temp} ke no types 6 7
  fix swp swpFe atom/swap 1 1 9244496 432 ke no types 6 7
  thermo 100
  thermo_style custom step v_ftemp pe f_swp[1] f_swp[2]
  run ${nsteps}
  run 972
WARNING: No fixes with time integration, atoms won't move (../verlet.cpp:60)
PPPM initialization ...
  using 12-bit tables for long-range coulomb (../kspace.cpp:340)
  G vector (1/distance) = 0.29499995
  grid = 45 45 250
  stencil order = 5
  estimated absolute RMS force accuracy = 0.00038527262
  estimated relative force accuracy = 1.160237e-06
  using double precision KISS FFT
  3d grid and FFT values/proc = 554040 378675
  generated 45 of 45 mixed pair_coeff terms from arithmetic mixing rule
Per MPI rank memory allocation (min/avg/max) = 24.35 | 35.11 | 63.71 Mbytes
Step v_ftemp PotEng f_swp[1] f_swp[2] 
   43740          432   -787007.44            0            0 
   43800          432   -787007.02           60            2 
   43900          432   -787007.02          160            2 
   44000          432   -787007.02          260            2 
   44100          432   -787007.02          360            2 
   44200          432   -787007.02          460            2 
   44300          432   -787007.02          560            2 
   44400          432   -787007.02          660            2 
   44500          432   -787007.02          760            2 
   44600          432   -787007.02          860            2 
   44700          432   -787007.02          960            2 
   44712          432   -787007.02          972            2 
Loop time of 268.595 on 4 procs for 972 steps with 4311 atoms

Performance: 0.156 ns/day, 153.518 hours/ns, 3.619 timesteps/s
94.1% CPU use with 4 MPI tasks x no OpenMP threads

MPI task timing breakdown:
Section |  min time  |  avg time  |  max time  |%varavg| %total
---------------------------------------------------------------
Pair    | 2.8793     | 7.5076     | 11.153     | 127.3 |  2.80
Bond    | 0.0013726  | 0.0035006  | 0.0085893  |   5.0 |  0.00
Kspace  | 63.148     | 66.797     | 71.428     |  42.7 | 24.87
Neigh   | 17.041     | 17.067     | 17.105     |   0.6 |  6.35
Comm    | 0.42989    | 0.47993    | 0.51327    |   5.0 |  0.18
Output  | 0.00024817 | 0.00063119 | 0.0014249  |   0.0 |  0.00
Modify  | 176.7      | 176.71     | 176.72     |   0.1 | 65.79
Other   |            | 0.02787    |            |       |  0.01

Nlocal:        1077.75 ave        1494 max         657 min
Histogram: 1 1 0 0 0 0 0 0 1 1
Nghost:        8908.25 ave       11934 max        5689 min
Histogram: 1 1 0 0 0 0 0 0 0 2
Neighs:         536710 ave      798273 max      198736 min
Histogram: 1 0 0 1 0 0 0 0 0 2

Total # of neighbors = 2146840
Ave neighs/atom = 497.99119
Ave special neighs/atom = 0.029227557
Neighbor list builds = 1944
Dangerous builds = 0

  unfix swp
  thermo_style custom step temp pe

next temp
jump SELF minimize_temp

  variable ftemp equal v_temp

  # Electrostatic relaxation
  fix swp swpFe atom/swap 1 1 ${rand} ${temp} ke no types 6 7
  fix swp swpFe atom/swap 1 1 5825701 ${temp} ke no types 6 7
  fix swp swpFe atom/swap 1 1 5825701 388 ke no types 6 7
  thermo 100
  thermo_style custom step v_ftemp pe f_swp[1] f_swp[2]
  run ${nsteps}
  run 972
WARNING: No fixes with time integration, atoms won't move (../verlet.cpp:60)
PPPM initialization ...
  using 12-bit tables for long-range coulomb (../kspace.cpp:340)
  G vector (1/distance) = 0.29499995
  grid = 45 45 250
  stencil order = 5
  estimated absolute RMS force accuracy = 0.00038527262
  estimated relative force accuracy = 1.160237e-06
  using double precision KISS FFT
  3d grid and FFT values/proc = 554040 378675
  generated 45 of 45 mixed pair_coeff terms from arithmetic mixing rule
Per MPI rank memory allocation (min/avg/max) = 24.35 | 35.11 | 63.71 Mbytes
Step v_ftemp PotEng f_swp[1] f_swp[2] 
   44712          388   -787007.02            0            0 
   44800          388   -787007.02           88            0 
   44900          388   -787007.02          188            0 
   45000          388   -787007.02          288            0 
   45100          388   -787007.79          388            1 
   45200          388   -787007.79          488            1 
   45300          388   -787007.02          588            2 
   45400          388   -787007.02          688            2 
   45500          388   -787010.15          788            4 
   45600          388   -787010.15          888            4 
   45684          388   -787010.15          972            4 
Loop time of 268.57 on 4 procs for 972 steps with 4311 atoms

Performance: 0.156 ns/day, 153.504 hours/ns, 3.619 timesteps/s
93.9% CPU use with 4 MPI tasks x no OpenMP threads

MPI task timing breakdown:
Section |  min time  |  avg time  |  max time  |%varavg| %total
---------------------------------------------------------------
Pair    | 2.8589     | 7.4809     | 11.076     | 127.1 |  2.79
Bond    | 0.0015272  | 0.0034034  | 0.008022   |   4.6 |  0.00
Kspace  | 64.271     | 67.87      | 72.495     |  42.2 | 25.27
Neigh   | 16.855     | 16.88      | 16.916     |   0.6 |  6.29
Comm    | 0.40824    | 0.45571    | 0.48712    |   4.9 |  0.17
Output  | 0.00019048 | 0.00046046 | 0.001134   |   0.0 |  0.00
Modify  | 175.85     | 175.86     | 175.87     |   0.1 | 65.48
Other   |            | 0.02474    |            |       |  0.01

Nlocal:        1077.75 ave        1494 max         657 min
Histogram: 1 1 0 0 0 0 0 0 1 1
Nghost:        8908.25 ave       11934 max        5689 min
Histogram: 1 1 0 0 0 0 0 0 0 2
Neighs:         536710 ave      798273 max      198736 min
Histogram: 1 0 0 1 0 0 0 0 0 2

Total # of neighbors = 2146840
Ave neighs/atom = 497.99119
Ave special neighs/atom = 0.029227557
Neighbor list builds = 1944
Dangerous builds = 0

  unfix swp
  thermo_style custom step temp pe

next temp
jump SELF minimize_temp

  variable ftemp equal v_temp

  # Electrostatic relaxation
  fix swp swpFe atom/swap 1 1 ${rand} ${temp} ke no types 6 7
  fix swp swpFe atom/swap 1 1 2375897 ${temp} ke no types 6 7
  fix swp swpFe atom/swap 1 1 2375897 349 ke no types 6 7
  thermo 100
  thermo_style custom step v_ftemp pe f_swp[1] f_swp[2]
  run ${nsteps}
  run 972
WARNING: No fixes with time integration, atoms won't move (../verlet.cpp:60)
PPPM initialization ...
  using 12-bit tables for long-range coulomb (../kspace.cpp:340)
  G vector (1/distance) = 0.29499995
  grid = 45 45 250
  stencil order = 5
  estimated absolute RMS force accuracy = 0.00038527262
  estimated relative force accuracy = 1.160237e-06
  using double precision KISS FFT
  3d grid and FFT values/proc = 554040 378675
  generated 45 of 45 mixed pair_coeff terms from arithmetic mixing rule
Per MPI rank memory allocation (min/avg/max) = 24.35 | 35.11 | 63.71 Mbytes
Step v_ftemp PotEng f_swp[1] f_swp[2] 
   45684          349   -787010.15            0            0 
   45700          349   -787010.15           16            0 
   45800          349   -787010.15          116            0 
   45900          349   -787010.15          216            0 
   46000          349   -787012.84          316            1 
   46100          349   -787012.84          416            1 
   46200          349   -787012.84          516            1 
   46300          349   -787012.84          616            1 
   46400          349   -787012.84          716            1 
   46500          349   -787012.84          816            1 
   46600          349   -787012.84          916            1 
   46656          349   -787012.84          972            1 
Loop time of 266.746 on 4 procs for 972 steps with 4311 atoms

Performance: 0.157 ns/day, 152.461 hours/ns, 3.644 timesteps/s
94.0% CPU use with 4 MPI tasks x no OpenMP threads

MPI task timing breakdown:
Section |  min time  |  avg time  |  max time  |%varavg| %total
---------------------------------------------------------------
Pair    | 2.8819     | 7.5316     | 11.179     | 127.7 |  2.82
Bond    | 0.0016422  | 0.0035535  | 0.0082347  |   4.6 |  0.00
Kspace  | 62.717     | 66.369     | 71.021     |  43.0 | 24.88
Neigh   | 17.023     | 17.049     | 17.087     |   0.6 |  6.39
Comm    | 0.41597    | 0.46599    | 0.49829    |   5.0 |  0.17
Output  | 0.00021033 | 0.00048262 | 0.0011422  |   0.0 |  0.00
Modify  | 175.29     | 175.3      | 175.31     |   0.1 | 65.72
Other   |            | 0.02681    |            |       |  0.01

Nlocal:        1077.75 ave        1494 max         657 min
Histogram: 1 1 0 0 0 0 0 0 1 1
Nghost:        8908.25 ave       11934 max        5689 min
Histogram: 1 1 0 0 0 0 0 0 0 2
Neighs:         536710 ave      798273 max      198736 min
Histogram: 1 0 0 1 0 0 0 0 0 2

Total # of neighbors = 2146840
Ave neighs/atom = 497.99119
Ave special neighs/atom = 0.029227557
Neighbor list builds = 1944
Dangerous builds = 0

  unfix swp
  thermo_style custom step temp pe

next temp
jump SELF minimize_temp

  variable ftemp equal v_temp

  # Electrostatic relaxation
  fix swp swpFe atom/swap 1 1 ${rand} ${temp} ke no types 6 7
  fix swp swpFe atom/swap 1 1 658845 ${temp} ke no types 6 7
  fix swp swpFe atom/swap 1 1 658845 314 ke no types 6 7
  thermo 100
  thermo_style custom step v_ftemp pe f_swp[1] f_swp[2]
  run ${nsteps}
  run 972
WARNING: No fixes with time integration, atoms won't move (../verlet.cpp:60)
PPPM initialization ...
  using 12-bit tables for long-range coulomb (../kspace.cpp:340)
  G vector (1/distance) = 0.29499995
  grid = 45 45 250
  stencil order = 5
  estimated absolute RMS force accuracy = 0.00038527262
  estimated relative force accuracy = 1.160237e-06
  using double precision KISS FFT
  3d grid and FFT values/proc = 554040 378675
  generated 45 of 45 mixed pair_coeff terms from arithmetic mixing rule
Per MPI rank memory allocation (min/avg/max) = 24.35 | 35.11 | 63.71 Mbytes
Step v_ftemp PotEng f_swp[1] f_swp[2] 
   46656          314   -787012.84            0            0 
   46700          314   -787012.84           44            0 
   46800          314    -787009.5          144            1 
   46900          314   -787012.84          244            2 
   47000          314   -787012.84          344            2 
   47100          314   -787012.84          444            2 
   47200          314   -787013.83          544            3 
   47300          314   -787013.83          644            3 
   47400          314   -787013.83          744            3 
   47500          314   -787013.83          844            3 
   47600          314   -787013.83          944            3 
   47628          314   -787013.83          972            3 
Loop time of 263.882 on 4 procs for 972 steps with 4311 atoms

Performance: 0.159 ns/day, 150.824 hours/ns, 3.683 timesteps/s
94.4% CPU use with 4 MPI tasks x no OpenMP threads

MPI task timing breakdown:
Section |  min time  |  avg time  |  max time  |%varavg| %total
---------------------------------------------------------------
Pair    | 2.8832     | 7.4747     | 11.055     | 126.0 |  2.83
Bond    | 0.0015412  | 0.0032704  | 0.0079442  |   4.7 |  0.00
Kspace  | 61.66      | 65.245     | 69.838     |  42.7 | 24.73
Neigh   | 17.045     | 17.072     | 17.112     |   0.7 |  6.47
Comm    | 0.46234    | 0.51779    | 0.55387    |   5.2 |  0.20
Output  | 0.0002575  | 0.00064184 | 0.0015475  |   0.0 |  0.00
Modify  | 173.53     | 173.54     | 173.56     |   0.1 | 65.76
Other   |            | 0.02764    |            |       |  0.01

Nlocal:        1077.75 ave        1494 max         657 min
Histogram: 1 1 0 0 0 0 0 0 1 1
Nghost:        8908.25 ave       11934 max        5689 min
Histogram: 1 1 0 0 0 0 0 0 0 2
Neighs:         536710 ave      798273 max      198736 min
Histogram: 1 0 0 1 0 0 0 0 0 2

Total # of neighbors = 2146840
Ave neighs/atom = 497.99119
Ave special neighs/atom = 0.029227557
Neighbor list builds = 1944
Dangerous builds = 0

  unfix swp
  thermo_style custom step temp pe

next temp
jump SELF minimize_temp

  variable ftemp equal v_temp

  # Electrostatic relaxation
  fix swp swpFe atom/swap 1 1 ${rand} ${temp} ke no types 6 7
  fix swp swpFe atom/swap 1 1 6228661 ${temp} ke no types 6 7
  fix swp swpFe atom/swap 1 1 6228661 282 ke no types 6 7
  thermo 100
  thermo_style custom step v_ftemp pe f_swp[1] f_swp[2]
  run ${nsteps}
  run 972
WARNING: No fixes with time integration, atoms won't move (../verlet.cpp:60)
PPPM initialization ...
  using 12-bit tables for long-range coulomb (../kspace.cpp:340)
  G vector (1/distance) = 0.29499995
  grid = 45 45 250
  stencil order = 5
  estimated absolute RMS force accuracy = 0.00038527262
  estimated relative force accuracy = 1.160237e-06
  using double precision KISS FFT
  3d grid and FFT values/proc = 554040 378675
  generated 45 of 45 mixed pair_coeff terms from arithmetic mixing rule
Per MPI rank memory allocation (min/avg/max) = 24.35 | 35.11 | 63.71 Mbytes
Step v_ftemp PotEng f_swp[1] f_swp[2] 
   47628          282   -787013.83            0            0 
   47700          282   -787013.83           72            0 
   47800          282   -787013.83          172            0 
   47900          282   -787013.83          272            0 
   48000          282   -787013.83          372            0 
   48100          282   -787013.83          472            0 
   48200          282   -787013.83          572            0 
   48300          282   -787013.83          672            0 
   48400          282   -787013.83          772            0 
   48500          282   -787013.83          872            0 
   48600          282   -787013.83          972            0 
Loop time of 266.803 on 4 procs for 972 steps with 4311 atoms

Performance: 0.157 ns/day, 152.494 hours/ns, 3.643 timesteps/s
94.1% CPU use with 4 MPI tasks x no OpenMP threads

MPI task timing breakdown:
Section |  min time  |  avg time  |  max time  |%varavg| %total
---------------------------------------------------------------
Pair    | 2.8609     | 7.4313     | 11.022     | 125.9 |  2.79
Bond    | 0.0017439  | 0.0032694  | 0.0076503  |   4.4 |  0.00
Kspace  | 63.181     | 66.775     | 71.347     |  42.0 | 25.03
Neigh   | 17.1       | 17.13      | 17.171     |   0.7 |  6.42
Comm    | 0.47192    | 0.52799    | 0.5644     |   5.2 |  0.20
Output  | 0.00022169 | 0.00050532 | 0.0011719  |   0.0 |  0.00
Modify  | 174.9      | 174.91     | 174.92     |   0.1 | 65.56
Other   |            | 0.02581    |            |       |  0.01

Nlocal:        1077.75 ave        1494 max         657 min
Histogram: 1 1 0 0 0 0 0 0 1 1
Nghost:        8908.25 ave       11934 max        5689 min
Histogram: 1 1 0 0 0 0 0 0 0 2
Neighs:         536710 ave      798273 max      198736 min
Histogram: 1 0 0 1 0 0 0 0 0 2

Total # of neighbors = 2146840
Ave neighs/atom = 497.99119
Ave special neighs/atom = 0.029227557
Neighbor list builds = 1944
Dangerous builds = 0

  unfix swp
  thermo_style custom step temp pe

next temp
jump SELF minimize_temp

  variable ftemp equal v_temp

  # Electrostatic relaxation
  fix swp swpFe atom/swap 1 1 ${rand} ${temp} ke no types 6 7
  fix swp swpFe atom/swap 1 1 7694381 ${temp} ke no types 6 7
  fix swp swpFe atom/swap 1 1 7694381 253 ke no types 6 7
  thermo 100
  thermo_style custom step v_ftemp pe f_swp[1] f_swp[2]
  run ${nsteps}
  run 972
WARNING: No fixes with time integration, atoms won't move (../verlet.cpp:60)
PPPM initialization ...
  using 12-bit tables for long-range coulomb (../kspace.cpp:340)
  G vector (1/distance) = 0.29499995
  grid = 45 45 250
  stencil order = 5
  estimated absolute RMS force accuracy = 0.00038527262
  estimated relative force accuracy = 1.160237e-06
  using double precision KISS FFT
  3d grid and FFT values/proc = 554040 378675
  generated 45 of 45 mixed pair_coeff terms from arithmetic mixing rule
Per MPI rank memory allocation (min/avg/max) = 24.35 | 35.11 | 63.71 Mbytes
Step v_ftemp PotEng f_swp[1] f_swp[2] 
   48600          253   -787013.83            0            0 
   48700          253   -787013.83          100            0 
   48800          253   -787013.83          200            0 
   48900          253   -787013.83          300            0 
   49000          253   -787013.83          400            0 
   49100          253   -787013.83          500            0 
   49200          253   -787013.83          600            0 
   49300          253   -787013.83          700            0 
   49400          253   -787013.83          800            0 
   49500          253   -787013.83          900            0 
   49572          253   -787013.83          972            0 
Loop time of 266.729 on 4 procs for 972 steps with 4311 atoms

Performance: 0.157 ns/day, 152.452 hours/ns, 3.644 timesteps/s
94.1% CPU use with 4 MPI tasks x no OpenMP threads

MPI task timing breakdown:
Section |  min time  |  avg time  |  max time  |%varavg| %total
---------------------------------------------------------------
Pair    | 2.8694     | 7.4409     | 10.991     | 125.7 |  2.79
Bond    | 0.0013377  | 0.0030677  | 0.0075485  |   4.7 |  0.00
Kspace  | 62.762     | 66.316     | 70.89      |  42.2 | 24.86
Neigh   | 17.211     | 17.238     | 17.278     |   0.7 |  6.46
Comm    | 0.5451     | 0.59839    | 0.63561    |   4.9 |  0.22
Output  | 0.00022852 | 0.00058321 | 0.0014493  |   0.0 |  0.00
Modify  | 175.09     | 175.11     | 175.12     |   0.1 | 65.65
Other   |            | 0.02618    |            |       |  0.01

Nlocal:        1077.75 ave        1494 max         657 min
Histogram: 1 1 0 0 0 0 0 0 1 1
Nghost:        8908.25 ave       11934 max        5689 min
Histogram: 1 1 0 0 0 0 0 0 0 2
Neighs:         536710 ave      798273 max      198736 min
Histogram: 1 0 0 1 0 0 0 0 0 2

Total # of neighbors = 2146840
Ave neighs/atom = 497.99119
Ave special neighs/atom = 0.029227557
Neighbor list builds = 1944
Dangerous builds = 0

  unfix swp
  thermo_style custom step temp pe

next temp
jump SELF minimize_temp

  variable ftemp equal v_temp

  # Electrostatic relaxation
  fix swp swpFe atom/swap 1 1 ${rand} ${temp} ke no types 6 7
  fix swp swpFe atom/swap 1 1 3903945 ${temp} ke no types 6 7
  fix swp swpFe atom/swap 1 1 3903945 227 ke no types 6 7
  thermo 100
  thermo_style custom step v_ftemp pe f_swp[1] f_swp[2]
  run ${nsteps}
  run 972
WARNING: No fixes with time integration, atoms won't move (../verlet.cpp:60)
PPPM initialization ...
  using 12-bit tables for long-range coulomb (../kspace.cpp:340)
  G vector (1/distance) = 0.29499995
  grid = 45 45 250
  stencil order = 5
  estimated absolute RMS force accuracy = 0.00038527262
  estimated relative force accuracy = 1.160237e-06
  using double precision KISS FFT
  3d grid and FFT values/proc = 554040 378675
  generated 45 of 45 mixed pair_coeff terms from arithmetic mixing rule
Per MPI rank memory allocation (min/avg/max) = 24.35 | 35.11 | 63.71 Mbytes
Step v_ftemp PotEng f_swp[1] f_swp[2] 
   49572          227   -787013.83            0            0 
   49600          227   -787013.83           28            0 
   49700          227   -787013.83          128            0 
   49800          227   -787013.83          228            0 
   49900          227   -787013.83          328            0 
   50000          227   -787013.83          428            0 
   50100          227   -787013.83          528            0 
   50200          227   -787013.83          628            0 
   50300          227   -787013.83          728            0 
   50400          227   -787013.83          828            0 
   50500          227   -787013.83          928            0 
   50544          227   -787013.83          972            0 
Loop time of 268.634 on 4 procs for 972 steps with 4311 atoms

Performance: 0.156 ns/day, 153.540 hours/ns, 3.618 timesteps/s
94.0% CPU use with 4 MPI tasks x no OpenMP threads

MPI task timing breakdown:
Section |  min time  |  avg time  |  max time  |%varavg| %total
---------------------------------------------------------------
Pair    | 2.831      | 7.3726     | 10.925     | 125.3 |  2.74
Bond    | 0.0013362  | 0.0030152  | 0.0075859  |   4.8 |  0.00
Kspace  | 63.727     | 67.285     | 71.826     |  41.5 | 25.05
Neigh   | 16.87      | 16.897     | 16.936     |   0.7 |  6.29
Comm    | 0.46952    | 0.52092    | 0.56295    |   4.8 |  0.19
Output  | 0.00023232 | 0.00052459 | 0.0012368  |   0.0 |  0.00
Modify  | 176.51     | 176.53     | 176.54     |   0.1 | 65.71
Other   |            | 0.02472    |            |       |  0.01

Nlocal:        1077.75 ave        1494 max         657 min
Histogram: 1 1 0 0 0 0 0 0 1 1
Nghost:        8908.25 ave       11934 max        5689 min
Histogram: 1 1 0 0 0 0 0 0 0 2
Neighs:         536710 ave      798273 max      198736 min
Histogram: 1 0 0 1 0 0 0 0 0 2

Total # of neighbors = 2146840
Ave neighs/atom = 497.99119
Ave special neighs/atom = 0.029227557
Neighbor list builds = 1944
Dangerous builds = 0

  unfix swp
  thermo_style custom step temp pe

next temp
jump SELF minimize_temp

  variable ftemp equal v_temp

  # Electrostatic relaxation
  fix swp swpFe atom/swap 1 1 ${rand} ${temp} ke no types 6 7
  fix swp swpFe atom/swap 1 1 9454489 ${temp} ke no types 6 7
  fix swp swpFe atom/swap 1 1 9454489 204 ke no types 6 7
  thermo 100
  thermo_style custom step v_ftemp pe f_swp[1] f_swp[2]
  run ${nsteps}
  run 972
WARNING: No fixes with time integration, atoms won't move (../verlet.cpp:60)
PPPM initialization ...
  using 12-bit tables for long-range coulomb (../kspace.cpp:340)
  G vector (1/distance) = 0.29499995
  grid = 45 45 250
  stencil order = 5
  estimated absolute RMS force accuracy = 0.00038527262
  estimated relative force accuracy = 1.160237e-06
  using double precision KISS FFT
  3d grid and FFT values/proc = 554040 378675
  generated 45 of 45 mixed pair_coeff terms from arithmetic mixing rule
Per MPI rank memory allocation (min/avg/max) = 24.35 | 35.11 | 63.71 Mbytes
Step v_ftemp PotEng f_swp[1] f_swp[2] 
   50544          204   -787013.83            0            0 
   50600          204   -787013.83           56            0 
   50700          204   -787013.83          156            0 
   50800          204   -787013.83          256            0 
   50900          204   -787013.83          356            0 
   51000          204   -787013.83          456            0 
   51100          204   -787013.83          556            0 
   51200          204   -787013.83          656            0 
   51300          204   -787013.83          756            0 
   51400          204   -787013.83          856            0 
   51500          204   -787013.83          956            0 
   51516          204   -787013.83          972            0 
Loop time of 262.689 on 4 procs for 972 steps with 4311 atoms

Performance: 0.160 ns/day, 150.143 hours/ns, 3.700 timesteps/s
94.1% CPU use with 4 MPI tasks x no OpenMP threads

MPI task timing breakdown:
Section |  min time  |  avg time  |  max time  |%varavg| %total
---------------------------------------------------------------
Pair    | 2.86       | 7.4758     | 11.027     | 125.8 |  2.85
Bond    | 0.0014714  | 0.0032966  | 0.008073   |   4.8 |  0.00
Kspace  | 62.006     | 65.559     | 70.177     |  42.5 | 24.96
Neigh   | 16.952     | 16.979     | 17.019     |   0.7 |  6.46
Comm    | 0.45405    | 0.50665    | 0.54192    |   5.1 |  0.19
Output  | 0.00023863 | 0.00057024 | 0.0013742  |   0.0 |  0.00
Modify  | 172.13     | 172.14     | 172.15     |   0.1 | 65.53
Other   |            | 0.02578    |            |       |  0.01

Nlocal:        1077.75 ave        1494 max         657 min
Histogram: 1 1 0 0 0 0 0 0 1 1
Nghost:        8908.25 ave       11934 max        5689 min
Histogram: 1 1 0 0 0 0 0 0 0 2
Neighs:         536710 ave      798273 max      198736 min
Histogram: 1 0 0 1 0 0 0 0 0 2

Total # of neighbors = 2146840
Ave neighs/atom = 497.99119
Ave special neighs/atom = 0.029227557
Neighbor list builds = 1944
Dangerous builds = 0

  unfix swp
  thermo_style custom step temp pe

next temp
jump SELF minimize_temp

  variable ftemp equal v_temp

  # Electrostatic relaxation
  fix swp swpFe atom/swap 1 1 ${rand} ${temp} ke no types 6 7
  fix swp swpFe atom/swap 1 1 5910174 ${temp} ke no types 6 7
  fix swp swpFe atom/swap 1 1 5910174 183 ke no types 6 7
  thermo 100
  thermo_style custom step v_ftemp pe f_swp[1] f_swp[2]
  run ${nsteps}
  run 972
WARNING: No fixes with time integration, atoms won't move (../verlet.cpp:60)
PPPM initialization ...
  using 12-bit tables for long-range coulomb (../kspace.cpp:340)
  G vector (1/distance) = 0.29499995
  grid = 45 45 250
  stencil order = 5
  estimated absolute RMS force accuracy = 0.00038527262
  estimated relative force accuracy = 1.160237e-06
  using double precision KISS FFT
  3d grid and FFT values/proc = 554040 378675
  generated 45 of 45 mixed pair_coeff terms from arithmetic mixing rule
Per MPI rank memory allocation (min/avg/max) = 24.35 | 35.11 | 63.71 Mbytes
Step v_ftemp PotEng f_swp[1] f_swp[2] 
   51516          183   -787013.83            0            0 
   51600          183   -787013.83           84            0 
   51700          183   -787013.83          184            0 
   51800          183   -787013.83          284            0 
   51900          183   -787013.83          384            0 
   52000          183   -787013.83          484            0 
   52100          183   -787013.83          584            0 
   52200          183   -787013.83          684            0 
   52300          183   -787013.83          784            0 
   52400          183   -787013.83          884            0 
   52488          183   -787013.83          972            0 
Loop time of 264.152 on 4 procs for 972 steps with 4311 atoms

Performance: 0.159 ns/day, 150.979 hours/ns, 3.680 timesteps/s
94.3% CPU use with 4 MPI tasks x no OpenMP threads

MPI task timing breakdown:
Section |  min time  |  avg time  |  max time  |%varavg| %total
---------------------------------------------------------------
Pair    | 2.8264     | 7.3571     | 10.85      | 124.6 |  2.79
Bond    | 0.001117   | 0.0028119  | 0.0072751  |   4.9 |  0.00
Kspace  | 62.183     | 65.679     | 70.212     |  41.7 | 24.86
Neigh   | 16.879     | 16.906     | 16.947     |   0.7 |  6.40
Comm    | 0.4754     | 0.53303    | 0.56723    |   5.2 |  0.20
Output  | 0.00021051 | 0.00054943 | 0.0014052  |   0.0 |  0.00
Modify  | 173.64     | 173.65     | 173.66     |   0.1 | 65.74
Other   |            | 0.02569    |            |       |  0.01

Nlocal:        1077.75 ave        1494 max         657 min
Histogram: 1 1 0 0 0 0 0 0 1 1
Nghost:        8908.25 ave       11934 max        5689 min
Histogram: 1 1 0 0 0 0 0 0 0 2
Neighs:         536710 ave      798273 max      198736 min
Histogram: 1 0 0 1 0 0 0 0 0 2

Total # of neighbors = 2146840
Ave neighs/atom = 497.99119
Ave special neighs/atom = 0.029227557
Neighbor list builds = 1944
Dangerous builds = 0

  unfix swp
  thermo_style custom step temp pe

next temp
jump SELF minimize_temp

  variable ftemp equal v_temp

  # Electrostatic relaxation
  fix swp swpFe atom/swap 1 1 ${rand} ${temp} ke no types 6 7
  fix swp swpFe atom/swap 1 1 1067984 ${temp} ke no types 6 7
  fix swp swpFe atom/swap 1 1 1067984 164 ke no types 6 7
  thermo 100
  thermo_style custom step v_ftemp pe f_swp[1] f_swp[2]
  run ${nsteps}
  run 972
WARNING: No fixes with time integration, atoms won't move (../verlet.cpp:60)
PPPM initialization ...
  using 12-bit tables for long-range coulomb (../kspace.cpp:340)
  G vector (1/distance) = 0.29499995
  grid = 45 45 250
  stencil order = 5
  estimated absolute RMS force accuracy = 0.00038527262
  estimated relative force accuracy = 1.160237e-06
  using double precision KISS FFT
  3d grid and FFT values/proc = 554040 378675
  generated 45 of 45 mixed pair_coeff terms from arithmetic mixing rule
Per MPI rank memory allocation (min/avg/max) = 24.35 | 35.11 | 63.71 Mbytes
Step v_ftemp PotEng f_swp[1] f_swp[2] 
   52488          164   -787013.83            0            0 
   52500          164   -787013.83           12            0 
   52600          164   -787013.83          112            0 
   52700          164   -787013.83          212            0 
   52800          164   -787013.83          312            0 
   52900          164   -787013.83          412            0 
   53000          164   -787013.83          512            0 
   53100          164   -787013.83          612            0 
   53200          164   -787013.83          712            0 
   53300          164   -787013.83          812            0 
   53400          164   -787013.83          912            0 
   53460          164   -787013.83          972            0 
Loop time of 265.988 on 4 procs for 972 steps with 4311 atoms

Performance: 0.158 ns/day, 152.028 hours/ns, 3.654 timesteps/s
94.3% CPU use with 4 MPI tasks x no OpenMP threads

MPI task timing breakdown:
Section |  min time  |  avg time  |  max time  |%varavg| %total
---------------------------------------------------------------
Pair    | 2.8468     | 7.4005     | 10.937     | 124.8 |  2.78
Bond    | 0.0014419  | 0.0029714  | 0.0073401  |   4.6 |  0.00
Kspace  | 63.752     | 67.292     | 71.848     |  41.4 | 25.30
Neigh   | 17.017     | 17.045     | 17.085     |   0.7 |  6.41
Comm    | 0.4736     | 0.52971    | 0.56751    |   5.3 |  0.20
Output  | 0.00024809 | 0.00063834 | 0.0016173  |   0.0 |  0.00
Modify  | 173.68     | 173.69     | 173.71     |   0.1 | 65.30
Other   |            | 0.0266     |            |       |  0.01

Nlocal:        1077.75 ave        1494 max         657 min
Histogram: 1 1 0 0 0 0 0 0 1 1
Nghost:        8908.25 ave       11934 max        5689 min
Histogram: 1 1 0 0 0 0 0 0 0 2
Neighs:         536710 ave      798273 max      198736 min
Histogram: 1 0 0 1 0 0 0 0 0 2

Total # of neighbors = 2146840
Ave neighs/atom = 497.99119
Ave special neighs/atom = 0.029227557
Neighbor list builds = 1944
Dangerous builds = 0

  unfix swp
  thermo_style custom step temp pe

next temp
jump SELF minimize_temp

  variable ftemp equal v_temp

  # Electrostatic relaxation
  fix swp swpFe atom/swap 1 1 ${rand} ${temp} ke no types 6 7
  fix swp swpFe atom/swap 1 1 2893895 ${temp} ke no types 6 7
  fix swp swpFe atom/swap 1 1 2893895 147 ke no types 6 7
  thermo 100
  thermo_style custom step v_ftemp pe f_swp[1] f_swp[2]
  run ${nsteps}
  run 972
WARNING: No fixes with time integration, atoms won't move (../verlet.cpp:60)
PPPM initialization ...
  using 12-bit tables for long-range coulomb (../kspace.cpp:340)
  G vector (1/distance) = 0.29499995
  grid = 45 45 250
  stencil order = 5
  estimated absolute RMS force accuracy = 0.00038527262
  estimated relative force accuracy = 1.160237e-06
  using double precision KISS FFT
  3d grid and FFT values/proc = 554040 378675
  generated 45 of 45 mixed pair_coeff terms from arithmetic mixing rule
Per MPI rank memory allocation (min/avg/max) = 24.35 | 35.11 | 63.71 Mbytes
Step v_ftemp PotEng f_swp[1] f_swp[2] 
   53460          147   -787013.83            0            0 
   53500          147   -787013.83           40            0 
   53600          147   -787013.83          140            0 
   53700          147   -787013.83          240            0 
   53800          147   -787013.83          340            0 
   53900          147   -787013.83          440            0 
   54000          147   -787013.83          540            0 
   54100          147   -787013.83          640            0 
   54200          147   -787013.83          740            0 
   54300          147   -787013.83          840            0 
   54400          147   -787013.83          940            0 
   54432          147   -787013.83          972            0 
Loop time of 266.424 on 4 procs for 972 steps with 4311 atoms

Performance: 0.158 ns/day, 152.277 hours/ns, 3.648 timesteps/s
94.3% CPU use with 4 MPI tasks x no OpenMP threads

MPI task timing breakdown:
Section |  min time  |  avg time  |  max time  |%varavg| %total
---------------------------------------------------------------
Pair    | 2.8398     | 7.4079     | 11.024     | 126.0 |  2.78
Bond    | 0.0012507  | 0.0028489  | 0.0072685  |   4.8 |  0.00
Kspace  | 62.958     | 66.578     | 71.148     |  42.1 | 24.99
Neigh   | 17.008     | 17.036     | 17.078     |   0.7 |  6.39
Comm    | 0.48235    | 0.5405     | 0.57904    |   5.5 |  0.20
Output  | 0.00027479 | 0.00075282 | 0.0018885  |   0.0 |  0.00
Modify  | 174.82     | 174.83     | 174.85     |   0.1 | 65.62
Other   |            | 0.02655    |            |       |  0.01

Nlocal:        1077.75 ave        1494 max         657 min
Histogram: 1 1 0 0 0 0 0 0 1 1
Nghost:        8908.25 ave       11934 max        5689 min
Histogram: 1 1 0 0 0 0 0 0 0 2
Neighs:         536710 ave      798273 max      198736 min
Histogram: 1 0 0 1 0 0 0 0 0 2

Total # of neighbors = 2146840
Ave neighs/atom = 497.99119
Ave special neighs/atom = 0.029227557
Neighbor list builds = 1944
Dangerous builds = 0

  unfix swp
  thermo_style custom step temp pe

next temp
jump SELF minimize_temp

  variable ftemp equal v_temp

  # Electrostatic relaxation
  fix swp swpFe atom/swap 1 1 ${rand} ${temp} ke no types 6 7
  fix swp swpFe atom/swap 1 1 8575820 ${temp} ke no types 6 7
  fix swp swpFe atom/swap 1 1 8575820 132 ke no types 6 7
  thermo 100
  thermo_style custom step v_ftemp pe f_swp[1] f_swp[2]
  run ${nsteps}
  run 972
WARNING: No fixes with time integration, atoms won't move (../verlet.cpp:60)
PPPM initialization ...
  using 12-bit tables for long-range coulomb (../kspace.cpp:340)
  G vector (1/distance) = 0.29499995
  grid = 45 45 250
  stencil order = 5
  estimated absolute RMS force accuracy = 0.00038527262
  estimated relative force accuracy = 1.160237e-06
  using double precision KISS FFT
  3d grid and FFT values/proc = 554040 378675
  generated 45 of 45 mixed pair_coeff terms from arithmetic mixing rule
Per MPI rank memory allocation (min/avg/max) = 24.35 | 35.11 | 63.71 Mbytes
Step v_ftemp PotEng f_swp[1] f_swp[2] 
   54432          132   -787013.83            0            0 
   54500          132   -787013.83           68            0 
   54600          132   -787013.83          168            0 
   54700          132   -787013.83          268            0 
   54800          132   -787013.83          368            0 
   54900          132   -787013.83          468            0 
   55000          132   -787013.83          568            0 
   55100          132   -787013.83          668            0 
   55200          132   -787013.83          768            0 
   55300          132   -787013.83          868            0 
   55400          132   -787013.83          968            0 
   55404          132   -787013.83          972            0 
Loop time of 264.442 on 4 procs for 972 steps with 4311 atoms

Performance: 0.159 ns/day, 151.145 hours/ns, 3.676 timesteps/s
94.5% CPU use with 4 MPI tasks x no OpenMP threads

MPI task timing breakdown:
Section |  min time  |  avg time  |  max time  |%varavg| %total
---------------------------------------------------------------
Pair    | 2.835      | 7.4385     | 10.96      | 125.5 |  2.81
Bond    | 0.0014811  | 0.0030834  | 0.0075654  |   4.7 |  0.00
Kspace  | 61.562     | 65.086     | 69.692     |  42.5 | 24.61
Neigh   | 17.003     | 17.03      | 17.069     |   0.7 |  6.44
Comm    | 0.46326    | 0.51777    | 0.5526     |   5.2 |  0.20
Output  | 0.0002158  | 0.00056292 | 0.0014627  |   0.0 |  0.00
Modify  | 174.33     | 174.34     | 174.36     |   0.1 | 65.93
Other   |            | 0.02637    |            |       |  0.01

Nlocal:        1077.75 ave        1494 max         657 min
Histogram: 1 1 0 0 0 0 0 0 1 1
Nghost:        8908.25 ave       11934 max        5689 min
Histogram: 1 1 0 0 0 0 0 0 0 2
Neighs:         536710 ave      798273 max      198736 min
Histogram: 1 0 0 1 0 0 0 0 0 2

Total # of neighbors = 2146840
Ave neighs/atom = 497.99119
Ave special neighs/atom = 0.029227557
Neighbor list builds = 1944
Dangerous builds = 0

  unfix swp
  thermo_style custom step temp pe

next temp
jump SELF minimize_temp

  variable ftemp equal v_temp

  # Electrostatic relaxation
  fix swp swpFe atom/swap 1 1 ${rand} ${temp} ke no types 6 7
  fix swp swpFe atom/swap 1 1 8930244 ${temp} ke no types 6 7
  fix swp swpFe atom/swap 1 1 8930244 118 ke no types 6 7
  thermo 100
  thermo_style custom step v_ftemp pe f_swp[1] f_swp[2]
  run ${nsteps}
  run 972
WARNING: No fixes with time integration, atoms won't move (../verlet.cpp:60)
PPPM initialization ...
  using 12-bit tables for long-range coulomb (../kspace.cpp:340)
  G vector (1/distance) = 0.29499995
  grid = 45 45 250
  stencil order = 5
  estimated absolute RMS force accuracy = 0.00038527262
  estimated relative force accuracy = 1.160237e-06
  using double precision KISS FFT
  3d grid and FFT values/proc = 554040 378675
  generated 45 of 45 mixed pair_coeff terms from arithmetic mixing rule
Per MPI rank memory allocation (min/avg/max) = 24.35 | 35.11 | 63.71 Mbytes
Step v_ftemp PotEng f_swp[1] f_swp[2] 
   55404          118   -787013.83            0            0 
   55500          118   -787013.83           96            0 
   55600          118   -787013.83          196            0 
   55700          118   -787013.83          296            0 
   55800          118   -787013.83          396            0 
   55900          118   -787013.83          496            0 
   56000          118   -787013.83          596            0 
   56100          118   -787013.83          696            0 
   56200          118   -787013.83          796            0 
   56300          118   -787013.83          896            0 
   56376          118   -787013.83          972            0 
Loop time of 267.828 on 4 procs for 972 steps with 4311 atoms

Performance: 0.157 ns/day, 153.079 hours/ns, 3.629 timesteps/s
94.3% CPU use with 4 MPI tasks x no OpenMP threads

MPI task timing breakdown:
Section |  min time  |  avg time  |  max time  |%varavg| %total
---------------------------------------------------------------
Pair    | 2.8208     | 7.384      | 10.936     | 125.7 |  2.76
Bond    | 0.0013282  | 0.0030418  | 0.0074798  |   4.7 |  0.00
Kspace  | 62.97      | 66.527     | 71.091     |  41.9 | 24.84
Neigh   | 17.055     | 17.082     | 17.123     |   0.7 |  6.38
Comm    | 0.47073    | 0.52807    | 0.56645    |   5.4 |  0.20
Output  | 0.00019893 | 0.00050253 | 0.0012738  |   0.0 |  0.00
Modify  | 176.27     | 176.28     | 176.29     |   0.1 | 65.82
Other   |            | 0.02545    |            |       |  0.01

Nlocal:        1077.75 ave        1494 max         657 min
Histogram: 1 1 0 0 0 0 0 0 1 1
Nghost:        8908.25 ave       11934 max        5689 min
Histogram: 1 1 0 0 0 0 0 0 0 2
Neighs:         536710 ave      798273 max      198736 min
Histogram: 1 0 0 1 0 0 0 0 0 2

Total # of neighbors = 2146840
Ave neighs/atom = 497.99119
Ave special neighs/atom = 0.029227557
Neighbor list builds = 1944
Dangerous builds = 0

  unfix swp
  thermo_style custom step temp pe

next temp
jump SELF minimize_temp

  variable ftemp equal v_temp

  # Electrostatic relaxation
  fix swp swpFe atom/swap 1 1 ${rand} ${temp} ke no types 6 7
  fix swp swpFe atom/swap 1 1 2582118 ${temp} ke no types 6 7
  fix swp swpFe atom/swap 1 1 2582118 106 ke no types 6 7
  thermo 100
  thermo_style custom step v_ftemp pe f_swp[1] f_swp[2]
  run ${nsteps}
  run 972
WARNING: No fixes with time integration, atoms won't move (../verlet.cpp:60)
PPPM initialization ...
  using 12-bit tables for long-range coulomb (../kspace.cpp:340)
  G vector (1/distance) = 0.29499995
  grid = 45 45 250
  stencil order = 5
  estimated absolute RMS force accuracy = 0.00038527262
  estimated relative force accuracy = 1.160237e-06
  using double precision KISS FFT
  3d grid and FFT values/proc = 554040 378675
  generated 45 of 45 mixed pair_coeff terms from arithmetic mixing rule
Per MPI rank memory allocation (min/avg/max) = 24.35 | 35.11 | 63.71 Mbytes
Step v_ftemp PotEng f_swp[1] f_swp[2] 
   56376          106   -787013.83            0            0 
   56400          106   -787013.83           24            0 
   56500          106   -787013.83          124            0 
   56600          106   -787013.83          224            0 
   56700          106   -787013.83          324            0 
   56800          106   -787013.83          424            0 
   56900          106   -787013.83          524            0 
   57000          106   -787013.83          624            0 
   57100          106   -787013.83          724            0 
   57200          106   -787013.83          824            0 
   57300          106   -787013.83          924            0 
   57348          106   -787013.83          972            0 
Loop time of 266.61 on 4 procs for 972 steps with 4311 atoms

Performance: 0.157 ns/day, 152.383 hours/ns, 3.646 timesteps/s
94.2% CPU use with 4 MPI tasks x no OpenMP threads

MPI task timing breakdown:
Section |  min time  |  avg time  |  max time  |%varavg| %total
---------------------------------------------------------------
Pair    | 2.8794     | 7.4869     | 11.088     | 125.9 |  2.81
Bond    | 0.0014909  | 0.0035911  | 0.0091587  |   5.4 |  0.00
Kspace  | 63.34      | 66.943     | 71.552     |  42.1 | 25.11
Neigh   | 16.83      | 16.855     | 16.89      |   0.6 |  6.32
Comm    | 0.41458    | 0.4613     | 0.49264    |   4.8 |  0.17
Output  | 0.00077905 | 0.0035953  | 0.010638   |   6.8 |  0.00
Modify  | 174.82     | 174.83     | 174.85     |   0.1 | 65.58
Other   |            | 0.02512    |            |       |  0.01

Nlocal:        1077.75 ave        1494 max         657 min
Histogram: 1 1 0 0 0 0 0 0 1 1
Nghost:        8908.25 ave       11934 max        5689 min
Histogram: 1 1 0 0 0 0 0 0 0 2
Neighs:         536710 ave      798273 max      198736 min
Histogram: 1 0 0 1 0 0 0 0 0 2

Total # of neighbors = 2146840
Ave neighs/atom = 497.99119
Ave special neighs/atom = 0.029227557
Neighbor list builds = 1944
Dangerous builds = 0

  unfix swp
  thermo_style custom step temp pe

next temp
jump SELF minimize_temp

  variable ftemp equal v_temp

  # Electrostatic relaxation
  fix swp swpFe atom/swap 1 1 ${rand} ${temp} ke no types 6 7
  fix swp swpFe atom/swap 1 1 6127347 ${temp} ke no types 6 7
  fix swp swpFe atom/swap 1 1 6127347 95 ke no types 6 7
  thermo 100
  thermo_style custom step v_ftemp pe f_swp[1] f_swp[2]
  run ${nsteps}
  run 972
WARNING: No fixes with time integration, atoms won't move (../verlet.cpp:60)
PPPM initialization ...
  using 12-bit tables for long-range coulomb (../kspace.cpp:340)
  G vector (1/distance) = 0.29499995
  grid = 45 45 250
  stencil order = 5
  estimated absolute RMS force accuracy = 0.00038527262
  estimated relative force accuracy = 1.160237e-06
  using double precision KISS FFT
  3d grid and FFT values/proc = 554040 378675
  generated 45 of 45 mixed pair_coeff terms from arithmetic mixing rule
Per MPI rank memory allocation (min/avg/max) = 24.35 | 35.11 | 63.71 Mbytes
Step v_ftemp PotEng f_swp[1] f_swp[2] 
   57348           95   -787013.83            0            0 
   57400           95   -787013.83           52            0 
   57500           95   -787013.83          152            0 
   57600           95   -787013.83          252            0 
   57700           95   -787013.83          352            0 
   57800           95   -787013.83          452            0 
   57900           95   -787013.83          552            0 
   58000           95   -787013.83          652            0 
   58100           95   -787013.83          752            0 
   58200           95   -787013.83          852            0 
   58300           95   -787013.83          952            0 
   58320           95   -787013.83          972            0 
Loop time of 266.811 on 4 procs for 972 steps with 4311 atoms

Performance: 0.157 ns/day, 152.498 hours/ns, 3.643 timesteps/s
94.3% CPU use with 4 MPI tasks x no OpenMP threads

MPI task timing breakdown:
Section |  min time  |  avg time  |  max time  |%varavg| %total
---------------------------------------------------------------
Pair    | 2.9062     | 7.547      | 11.12      | 126.5 |  2.83
Bond    | 0.0014979  | 0.0036147  | 0.009014   |   5.2 |  0.00
Kspace  | 63.183     | 66.76      | 71.404     |  42.6 | 25.02
Neigh   | 16.883     | 16.909     | 16.945     |   0.6 |  6.34
Comm    | 0.41753    | 0.46567    | 0.49791    |   4.9 |  0.17
Output  | 0.00021438 | 0.00054104 | 0.0013653  |   0.0 |  0.00
Modify  | 175.09     | 175.1      | 175.11     |   0.1 | 65.63
Other   |            | 0.02751    |            |       |  0.01

Nlocal:        1077.75 ave        1494 max         657 min
Histogram: 1 1 0 0 0 0 0 0 1 1
Nghost:        8908.25 ave       11934 max        5689 min
Histogram: 1 1 0 0 0 0 0 0 0 2
Neighs:         536710 ave      798273 max      198736 min
Histogram: 1 0 0 1 0 0 0 0 0 2

Total # of neighbors = 2146840
Ave neighs/atom = 497.99119
Ave special neighs/atom = 0.029227557
Neighbor list builds = 1944
Dangerous builds = 0

  unfix swp
  thermo_style custom step temp pe

next temp
jump SELF minimize_temp

  variable ftemp equal v_temp

  # Electrostatic relaxation
  fix swp swpFe atom/swap 1 1 ${rand} ${temp} ke no types 6 7
  fix swp swpFe atom/swap 1 1 3743981 ${temp} ke no types 6 7
  fix swp swpFe atom/swap 1 1 3743981 85 ke no types 6 7
  thermo 100
  thermo_style custom step v_ftemp pe f_swp[1] f_swp[2]
  run ${nsteps}
  run 972
WARNING: No fixes with time integration, atoms won't move (../verlet.cpp:60)
PPPM initialization ...
  using 12-bit tables for long-range coulomb (../kspace.cpp:340)
  G vector (1/distance) = 0.29499995
  grid = 45 45 250
  stencil order = 5
  estimated absolute RMS force accuracy = 0.00038527262
  estimated relative force accuracy = 1.160237e-06
  using double precision KISS FFT
  3d grid and FFT values/proc = 554040 378675
  generated 45 of 45 mixed pair_coeff terms from arithmetic mixing rule
Per MPI rank memory allocation (min/avg/max) = 24.35 | 35.11 | 63.71 Mbytes
Step v_ftemp PotEng f_swp[1] f_swp[2] 
   58320           85   -787013.83            0            0 
   58400           85   -787013.83           80            0 
   58500           85   -787013.83          180            0 
   58600           85   -787013.83          280            0 
   58700           85   -787013.83          380            0 
   58800           85   -787013.83          480            0 
   58900           85   -787013.83          580            0 
   59000           85   -787013.83          680            0 
   59100           85   -787013.83          780            0 
   59200           85   -787013.83          880            0 
   59292           85   -787013.83          972            0 
Loop time of 263.73 on 4 procs for 972 steps with 4311 atoms

Performance: 0.159 ns/day, 150.737 hours/ns, 3.686 timesteps/s
94.2% CPU use with 4 MPI tasks x no OpenMP threads

MPI task timing breakdown:
Section |  min time  |  avg time  |  max time  |%varavg| %total
---------------------------------------------------------------
Pair    | 2.9195     | 7.5222     | 11.105     | 125.9 |  2.85
Bond    | 0.0014764  | 0.0034738  | 0.0089074  |   5.3 |  0.00
Kspace  | 61.564     | 65.151     | 69.755     |  42.8 | 24.70
Neigh   | 17.083     | 17.111     | 17.15      |   0.7 |  6.49
Comm    | 0.45452    | 0.50722    | 0.54165    |   5.2 |  0.19
Output  | 0.00023793 | 0.00057422 | 0.0014605  |   0.0 |  0.00
Modify  | 173.39     | 173.41     | 173.42     |   0.1 | 65.75
Other   |            | 0.02892    |            |       |  0.01

Nlocal:        1077.75 ave        1494 max         657 min
Histogram: 1 1 0 0 0 0 0 0 1 1
Nghost:        8908.25 ave       11934 max        5689 min
Histogram: 1 1 0 0 0 0 0 0 0 2
Neighs:         536710 ave      798273 max      198736 min
Histogram: 1 0 0 1 0 0 0 0 0 2

Total # of neighbors = 2146840
Ave neighs/atom = 497.99119
Ave special neighs/atom = 0.029227557
Neighbor list builds = 1944
Dangerous builds = 0

  unfix swp
  thermo_style custom step temp pe

next temp
jump SELF minimize_temp

  variable ftemp equal v_temp

  # Electrostatic relaxation
  fix swp swpFe atom/swap 1 1 ${rand} ${temp} ke no types 6 7
  fix swp swpFe atom/swap 1 1 3273207 ${temp} ke no types 6 7
  fix swp swpFe atom/swap 1 1 3273207 76 ke no types 6 7
  thermo 100
  thermo_style custom step v_ftemp pe f_swp[1] f_swp[2]
  run ${nsteps}
  run 972
WARNING: No fixes with time integration, atoms won't move (../verlet.cpp:60)
PPPM initialization ...
  using 12-bit tables for long-range coulomb (../kspace.cpp:340)
  G vector (1/distance) = 0.29499995
  grid = 45 45 250
  stencil order = 5
  estimated absolute RMS force accuracy = 0.00038527262
  estimated relative force accuracy = 1.160237e-06
  using double precision KISS FFT
  3d grid and FFT values/proc = 554040 378675
  generated 45 of 45 mixed pair_coeff terms from arithmetic mixing rule
Per MPI rank memory allocation (min/avg/max) = 24.35 | 35.11 | 63.71 Mbytes
Step v_ftemp PotEng f_swp[1] f_swp[2] 
   59292           76   -787013.83            0            0 
   59300           76   -787013.83            8            0 
   59400           76   -787013.83          108            0 
   59500           76   -787013.83          208            0 
   59600           76   -787013.83          308            0 
   59700           76   -787013.83          408            0 
   59800           76   -787013.83          508            0 
   59900           76   -787013.83          608            0 
   60000           76   -787013.83          708            0 
   60100           76   -787013.83          808            0 
   60200           76   -787013.83          908            0 
   60264           76   -787013.83          972            0 
Loop time of 267.795 on 4 procs for 972 steps with 4311 atoms

Performance: 0.157 ns/day, 153.061 hours/ns, 3.630 timesteps/s
94.1% CPU use with 4 MPI tasks x no OpenMP threads

MPI task timing breakdown:
Section |  min time  |  avg time  |  max time  |%varavg| %total
---------------------------------------------------------------
Pair    | 2.8575     | 7.444      | 10.961     | 125.7 |  2.78
Bond    | 0.0015141  | 0.0032745  | 0.0079079  |   4.7 |  0.00
Kspace  | 64.496     | 68.017     | 72.605     |  41.6 | 25.40
Neigh   | 16.926     | 16.953     | 16.992     |   0.7 |  6.33
Comm    | 0.44195    | 0.48854    | 0.52144    |   4.8 |  0.18
Output  | 0.00022343 | 0.00056348 | 0.0014277  |   0.0 |  0.00
Modify  | 174.85     | 174.86     | 174.87     |   0.1 | 65.30
Other   |            | 0.02535    |            |       |  0.01

Nlocal:        1077.75 ave        1494 max         657 min
Histogram: 1 1 0 0 0 0 0 0 1 1
Nghost:        8908.25 ave       11934 max        5689 min
Histogram: 1 1 0 0 0 0 0 0 0 2
Neighs:         536710 ave      798273 max      198736 min
Histogram: 1 0 0 1 0 0 0 0 0 2

Total # of neighbors = 2146840
Ave neighs/atom = 497.99119
Ave special neighs/atom = 0.029227557
Neighbor list builds = 1944
Dangerous builds = 0

  unfix swp
  thermo_style custom step temp pe

next temp
jump SELF minimize_temp

  variable ftemp equal v_temp

  # Electrostatic relaxation
  fix swp swpFe atom/swap 1 1 ${rand} ${temp} ke no types 6 7
  fix swp swpFe atom/swap 1 1 240566 ${temp} ke no types 6 7
  fix swp swpFe atom/swap 1 1 240566 68 ke no types 6 7
  thermo 100
  thermo_style custom step v_ftemp pe f_swp[1] f_swp[2]
  run ${nsteps}
  run 972
WARNING: No fixes with time integration, atoms won't move (../verlet.cpp:60)
PPPM initialization ...
  using 12-bit tables for long-range coulomb (../kspace.cpp:340)
  G vector (1/distance) = 0.29499995
  grid = 45 45 250
  stencil order = 5
  estimated absolute RMS force accuracy = 0.00038527262
  estimated relative force accuracy = 1.160237e-06
  using double precision KISS FFT
  3d grid and FFT values/proc = 554040 378675
  generated 45 of 45 mixed pair_coeff terms from arithmetic mixing rule
Per MPI rank memory allocation (min/avg/max) = 24.35 | 35.11 | 63.71 Mbytes
Step v_ftemp PotEng f_swp[1] f_swp[2] 
   60264           68   -787013.83            0            0 
   60300           68   -787013.83           36            0 
   60400           68   -787013.83          136            0 
   60500           68   -787013.83          236            0 
   60600           68   -787013.83          336            0 
   60700           68   -787013.83          436            0 
   60800           68   -787013.83          536            0 
   60900           68   -787013.83          636            0 
   61000           68   -787013.83          736            0 
   61100           68   -787013.83          836            0 
   61200           68   -787013.83          936            0 
   61236           68   -787013.83          972            0 
Loop time of 270.671 on 4 procs for 972 steps with 4311 atoms

Performance: 0.155 ns/day, 154.704 hours/ns, 3.591 timesteps/s
94.1% CPU use with 4 MPI tasks x no OpenMP threads

MPI task timing breakdown:
Section |  min time  |  avg time  |  max time  |%varavg| %total
---------------------------------------------------------------
Pair    | 2.7984     | 7.3968     | 10.846     | 126.4 |  2.73
Bond    | 0.0014192  | 0.0030848  | 0.0072773  |   4.4 |  0.00
Kspace  | 64.702     | 68.154     | 72.754     |  41.7 | 25.18
Neigh   | 16.722     | 16.749     | 16.788     |   0.7 |  6.19
Comm    | 0.44613    | 0.49678    | 0.53081    |   5.0 |  0.18
Output  | 0.00022405 | 0.00060484 | 0.0015909  |   0.0 |  0.00
Modify  | 177.84     | 177.85     | 177.86     |   0.1 | 65.71
Other   |            | 0.02355    |            |       |  0.01

Nlocal:        1077.75 ave        1494 max         657 min
Histogram: 1 1 0 0 0 0 0 0 1 1
Nghost:        8908.25 ave       11934 max        5689 min
Histogram: 1 1 0 0 0 0 0 0 0 2
Neighs:         536710 ave      798273 max      198736 min
Histogram: 1 0 0 1 0 0 0 0 0 2

Total # of neighbors = 2146840
Ave neighs/atom = 497.99119
Ave special neighs/atom = 0.029227557
Neighbor list builds = 1944
Dangerous builds = 0

  unfix swp
  thermo_style custom step temp pe

next temp
jump SELF minimize_temp

  variable ftemp equal v_temp

  # Electrostatic relaxation
  fix swp swpFe atom/swap 1 1 ${rand} ${temp} ke no types 6 7
  fix swp swpFe atom/swap 1 1 7452945 ${temp} ke no types 6 7
  fix swp swpFe atom/swap 1 1 7452945 61 ke no types 6 7
  thermo 100
  thermo_style custom step v_ftemp pe f_swp[1] f_swp[2]
  run ${nsteps}
  run 972
WARNING: No fixes with time integration, atoms won't move (../verlet.cpp:60)
PPPM initialization ...
  using 12-bit tables for long-range coulomb (../kspace.cpp:340)
  G vector (1/distance) = 0.29499995
  grid = 45 45 250
  stencil order = 5
  estimated absolute RMS force accuracy = 0.00038527262
  estimated relative force accuracy = 1.160237e-06
  using double precision KISS FFT
  3d grid and FFT values/proc = 554040 378675
  generated 45 of 45 mixed pair_coeff terms from arithmetic mixing rule
Per MPI rank memory allocation (min/avg/max) = 24.35 | 35.11 | 63.71 Mbytes
Step v_ftemp PotEng f_swp[1] f_swp[2] 
   61236           61   -787013.83            0            0 
   61300           61   -787013.83           64            0 
   61400           61   -787013.83          164            0 
   61500           61   -787013.83          264            0 
   61600           61   -787013.83          364            0 
   61700           61   -787013.83          464            0 
   61800           61   -787013.83          564            0 
   61900           61   -787013.83          664            0 
   62000           61   -787013.83          764            0 
   62100           61   -787013.83          864            0 
   62200           61   -787013.83          964            0 
   62208           61   -787013.83          972            0 
Loop time of 268.761 on 4 procs for 972 steps with 4311 atoms

Performance: 0.156 ns/day, 153.613 hours/ns, 3.617 timesteps/s
93.8% CPU use with 4 MPI tasks x no OpenMP threads

MPI task timing breakdown:
Section |  min time  |  avg time  |  max time  |%varavg| %total
---------------------------------------------------------------
Pair    | 2.8802     | 7.5984     | 11.307     | 128.1 |  2.83
Bond    | 0.0016566  | 0.0036921  | 0.0085085  |   4.6 |  0.00
Kspace  | 63.526     | 67.241     | 71.961     |  43.1 | 25.02
Neigh   | 17.035     | 17.062     | 17.101     |   0.7 |  6.35
Comm    | 0.40753    | 0.45714    | 0.49052    |   5.1 |  0.17
Output  | 0.00021036 | 0.0005607  | 0.0014537  |   0.0 |  0.00
Modify  | 176.36     | 176.37     | 176.38     |   0.1 | 65.62
Other   |            | 0.02614    |            |       |  0.01

Nlocal:        1077.75 ave        1494 max         657 min
Histogram: 1 1 0 0 0 0 0 0 1 1
Nghost:        8908.25 ave       11934 max        5689 min
Histogram: 1 1 0 0 0 0 0 0 0 2
Neighs:         536710 ave      798273 max      198736 min
Histogram: 1 0 0 1 0 0 0 0 0 2

Total # of neighbors = 2146840
Ave neighs/atom = 497.99119
Ave special neighs/atom = 0.029227557
Neighbor list builds = 1944
Dangerous builds = 0

  unfix swp
  thermo_style custom step temp pe

next temp
jump SELF minimize_temp

  variable ftemp equal v_temp

  # Electrostatic relaxation
  fix swp swpFe atom/swap 1 1 ${rand} ${temp} ke no types 6 7
  fix swp swpFe atom/swap 1 1 9853395 ${temp} ke no types 6 7
  fix swp swpFe atom/swap 1 1 9853395 54 ke no types 6 7
  thermo 100
  thermo_style custom step v_ftemp pe f_swp[1] f_swp[2]
  run ${nsteps}
  run 972
WARNING: No fixes with time integration, atoms won't move (../verlet.cpp:60)
PPPM initialization ...
  using 12-bit tables for long-range coulomb (../kspace.cpp:340)
  G vector (1/distance) = 0.29499995
  grid = 45 45 250
  stencil order = 5
  estimated absolute RMS force accuracy = 0.00038527262
  estimated relative force accuracy = 1.160237e-06
  using double precision KISS FFT
  3d grid and FFT values/proc = 554040 378675
  generated 45 of 45 mixed pair_coeff terms from arithmetic mixing rule
Per MPI rank memory allocation (min/avg/max) = 24.35 | 35.11 | 63.71 Mbytes
Step v_ftemp PotEng f_swp[1] f_swp[2] 
   62208           54   -787013.83            0            0 
   62300           54   -787013.83           92            0 
   62400           54   -787013.83          192            0 
   62500           54   -787013.83          292            0 
   62600           54   -787013.83          392            0 
   62700           54   -787013.83          492            0 
   62800           54   -787013.83          592            0 
   62900           54   -787013.83          692            0 
   63000           54   -787013.83          792            0 
   63100           54   -787013.83          892            0 
   63180           54   -787013.83          972            0 
Loop time of 267.088 on 4 procs for 972 steps with 4311 atoms

Performance: 0.157 ns/day, 152.657 hours/ns, 3.639 timesteps/s
94.2% CPU use with 4 MPI tasks x no OpenMP threads

MPI task timing breakdown:
Section |  min time  |  avg time  |  max time  |%varavg| %total
---------------------------------------------------------------
Pair    | 2.8605     | 7.447      | 11.015     | 126.1 |  2.79
Bond    | 0.0013364  | 0.003228   | 0.0082126  |   5.1 |  0.00
Kspace  | 62.87      | 66.442     | 71.029     |  42.2 | 24.88
Neigh   | 16.857     | 16.884     | 16.923     |   0.7 |  6.32
Comm    | 0.44445    | 0.49559    | 0.53009    |   5.1 |  0.19
Output  | 0.00022138 | 0.00053219 | 0.0012904  |   0.0 |  0.00
Modify  | 175.78     | 175.79     | 175.8      |   0.1 | 65.82
Other   |            | 0.02526    |            |       |  0.01

Nlocal:        1077.75 ave        1494 max         657 min
Histogram: 1 1 0 0 0 0 0 0 1 1
Nghost:        8908.25 ave       11934 max        5689 min
Histogram: 1 1 0 0 0 0 0 0 0 2
Neighs:         536710 ave      798273 max      198736 min
Histogram: 1 0 0 1 0 0 0 0 0 2

Total # of neighbors = 2146840
Ave neighs/atom = 497.99119
Ave special neighs/atom = 0.029227557
Neighbor list builds = 1944
Dangerous builds = 0

  unfix swp
  thermo_style custom step temp pe

next temp
jump SELF minimize_temp

  variable ftemp equal v_temp

  # Electrostatic relaxation
  fix swp swpFe atom/swap 1 1 ${rand} ${temp} ke no types 6 7
  fix swp swpFe atom/swap 1 1 8452553 ${temp} ke no types 6 7
  fix swp swpFe atom/swap 1 1 8452553 48 ke no types 6 7
  thermo 100
  thermo_style custom step v_ftemp pe f_swp[1] f_swp[2]
  run ${nsteps}
  run 972
WARNING: No fixes with time integration, atoms won't move (../verlet.cpp:60)
PPPM initialization ...
  using 12-bit tables for long-range coulomb (../kspace.cpp:340)
  G vector (1/distance) = 0.29499995
  grid = 45 45 250
  stencil order = 5
  estimated absolute RMS force accuracy = 0.00038527262
  estimated relative force accuracy = 1.160237e-06
  using double precision KISS FFT
  3d grid and FFT values/proc = 554040 378675
  generated 45 of 45 mixed pair_coeff terms from arithmetic mixing rule
Per MPI rank memory allocation (min/avg/max) = 24.35 | 35.11 | 63.71 Mbytes
Step v_ftemp PotEng f_swp[1] f_swp[2] 
   63180           48   -787013.83            0            0 
   63200           48   -787013.83           20            0 
   63300           48   -787013.83          120            0 
   63400           48   -787013.83          220            0 
   63500           48   -787013.83          320            0 
   63600           48   -787013.83          420            0 
   63700           48   -787013.83          520            0 
   63800           48   -787013.83          620            0 
   63900           48   -787013.83          720            0 
   64000           48   -787013.83          820            0 
   64100           48   -787013.83          920            0 
   64152           48   -787013.83          972            0 
Loop time of 269.209 on 4 procs for 972 steps with 4311 atoms

Performance: 0.156 ns/day, 153.869 hours/ns, 3.611 timesteps/s
94.3% CPU use with 4 MPI tasks x no OpenMP threads

MPI task timing breakdown:
Section |  min time  |  avg time  |  max time  |%varavg| %total
---------------------------------------------------------------
Pair    | 2.8098     | 7.2923     | 10.761     | 124.4 |  2.71
Bond    | 0.0010081  | 0.0027398  | 0.007258   |   5.0 |  0.00
Kspace  | 63.998     | 67.47      | 71.954     |  40.9 | 25.06
Neigh   | 16.97      | 17.001     | 17.044     |   0.7 |  6.32
Comm    | 0.48526    | 0.54438    | 0.58262    |   5.5 |  0.20
Output  | 0.00023674 | 0.00061562 | 0.0015511  |   0.0 |  0.00
Modify  | 176.86     | 176.87     | 176.89     |   0.1 | 65.70
Other   |            | 0.02492    |            |       |  0.01

Nlocal:        1077.75 ave        1494 max         657 min
Histogram: 1 1 0 0 0 0 0 0 1 1
Nghost:        8908.25 ave       11934 max        5689 min
Histogram: 1 1 0 0 0 0 0 0 0 2
Neighs:         536710 ave      798273 max      198736 min
Histogram: 1 0 0 1 0 0 0 0 0 2

Total # of neighbors = 2146840
Ave neighs/atom = 497.99119
Ave special neighs/atom = 0.029227557
Neighbor list builds = 1944
Dangerous builds = 0

  unfix swp
  thermo_style custom step temp pe

next temp
jump SELF minimize_temp

  variable ftemp equal v_temp

  # Electrostatic relaxation
  fix swp swpFe atom/swap 1 1 ${rand} ${temp} ke no types 6 7
  fix swp swpFe atom/swap 1 1 8678619 ${temp} ke no types 6 7
  fix swp swpFe atom/swap 1 1 8678619 43 ke no types 6 7
  thermo 100
  thermo_style custom step v_ftemp pe f_swp[1] f_swp[2]
  run ${nsteps}
  run 972
WARNING: No fixes with time integration, atoms won't move (../verlet.cpp:60)
PPPM initialization ...
  using 12-bit tables for long-range coulomb (../kspace.cpp:340)
  G vector (1/distance) = 0.29499995
  grid = 45 45 250
  stencil order = 5
  estimated absolute RMS force accuracy = 0.00038527262
  estimated relative force accuracy = 1.160237e-06
  using double precision KISS FFT
  3d grid and FFT values/proc = 554040 378675
  generated 45 of 45 mixed pair_coeff terms from arithmetic mixing rule
Per MPI rank memory allocation (min/avg/max) = 24.35 | 35.11 | 63.71 Mbytes
Step v_ftemp PotEng f_swp[1] f_swp[2] 
   64152           43   -787013.83            0            0 
   64200           43   -787013.83           48            0 
   64300           43   -787013.83          148            0 
   64400           43   -787013.83          248            0 
   64500           43   -787013.83          348            0 
   64600           43   -787013.83          448            0 
   64700           43   -787013.83          548            0 
   64800           43   -787013.83          648            0 
   64900           43   -787013.83          748            0 
   65000           43   -787013.83          848            0 
   65100           43   -787013.83          948            0 
   65124           43   -787013.83          972            0 
Loop time of 269.17 on 4 procs for 972 steps with 4311 atoms

Performance: 0.156 ns/day, 153.846 hours/ns, 3.611 timesteps/s
94.1% CPU use with 4 MPI tasks x no OpenMP threads

MPI task timing breakdown:
Section |  min time  |  avg time  |  max time  |%varavg| %total
---------------------------------------------------------------
Pair    | 2.83       | 7.3957     | 11.018     | 126.2 |  2.75
Bond    | 0.0013353  | 0.0030662  | 0.0076974  |   4.8 |  0.00
Kspace  | 63.475     | 67.1       | 71.667     |  41.9 | 24.93
Neigh   | 16.947     | 16.974     | 17.013     |   0.7 |  6.31
Comm    | 0.45847    | 0.51037    | 0.54596    |   5.2 |  0.19
Output  | 0.00026367 | 0.000642   | 0.0015539  |   0.0 |  0.00
Modify  | 177.15     | 177.16     | 177.18     |   0.1 | 65.82
Other   |            | 0.02405    |            |       |  0.01

Nlocal:        1077.75 ave        1494 max         657 min
Histogram: 1 1 0 0 0 0 0 0 1 1
Nghost:        8908.25 ave       11934 max        5689 min
Histogram: 1 1 0 0 0 0 0 0 0 2
Neighs:         536710 ave      798273 max      198736 min
Histogram: 1 0 0 1 0 0 0 0 0 2

Total # of neighbors = 2146840
Ave neighs/atom = 497.99119
Ave special neighs/atom = 0.029227557
Neighbor list builds = 1944
Dangerous builds = 0

  unfix swp
  thermo_style custom step temp pe

next temp
jump SELF minimize_temp

  variable ftemp equal v_temp

  # Electrostatic relaxation
  fix swp swpFe atom/swap 1 1 ${rand} ${temp} ke no types 6 7
  fix swp swpFe atom/swap 1 1 2634645 ${temp} ke no types 6 7
  fix swp swpFe atom/swap 1 1 2634645 38 ke no types 6 7
  thermo 100
  thermo_style custom step v_ftemp pe f_swp[1] f_swp[2]
  run ${nsteps}
  run 972
WARNING: No fixes with time integration, atoms won't move (../verlet.cpp:60)
PPPM initialization ...
  using 12-bit tables for long-range coulomb (../kspace.cpp:340)
  G vector (1/distance) = 0.29499995
  grid = 45 45 250
  stencil order = 5
  estimated absolute RMS force accuracy = 0.00038527262
  estimated relative force accuracy = 1.160237e-06
  using double precision KISS FFT
  3d grid and FFT values/proc = 554040 378675
  generated 45 of 45 mixed pair_coeff terms from arithmetic mixing rule
Per MPI rank memory allocation (min/avg/max) = 24.35 | 35.11 | 63.71 Mbytes
Step v_ftemp PotEng f_swp[1] f_swp[2] 
   65124           38   -787013.83            0            0 
   65200           38   -787013.83           76            0 
   65300           38   -787013.83          176            0 
   65400           38   -787013.83          276            0 
   65500           38   -787013.83          376            0 
   65600           38   -787013.83          476            0 
   65700           38   -787013.83          576            0 
   65800           38   -787013.83          676            0 
   65900           38   -787013.83          776            0 
   66000           38   -787013.83          876            0 
   66096           38   -787013.83          972            0 
Loop time of 268.869 on 4 procs for 972 steps with 4311 atoms

Performance: 0.156 ns/day, 153.675 hours/ns, 3.615 timesteps/s
93.7% CPU use with 4 MPI tasks x no OpenMP threads

MPI task timing breakdown:
Section |  min time  |  avg time  |  max time  |%varavg| %total
---------------------------------------------------------------
Pair    | 2.8533     | 7.4594     | 11.082     | 126.9 |  2.77
Bond    | 0.0016853  | 0.0034529  | 0.0082264  |   4.7 |  0.00
Kspace  | 63.841     | 67.468     | 72.075     |  42.2 | 25.09
Neigh   | 16.803     | 16.828     | 16.866     |   0.6 |  6.26
Comm    | 0.43567    | 0.48603    | 0.5198     |   5.0 |  0.18
Output  | 0.0002138  | 0.00051056 | 0.0012131  |   0.0 |  0.00
Modify  | 176.59     | 176.6      | 176.61     |   0.1 | 65.68
Other   |            | 0.02549    |            |       |  0.01

Nlocal:        1077.75 ave        1494 max         657 min
Histogram: 1 1 0 0 0 0 0 0 1 1
Nghost:        8908.25 ave       11934 max        5689 min
Histogram: 1 1 0 0 0 0 0 0 0 2
Neighs:         536710 ave      798273 max      198736 min
Histogram: 1 0 0 1 0 0 0 0 0 2

Total # of neighbors = 2146840
Ave neighs/atom = 497.99119
Ave special neighs/atom = 0.029227557
Neighbor list builds = 1944
Dangerous builds = 0

  unfix swp
  thermo_style custom step temp pe

next temp
jump SELF minimize_temp

  variable ftemp equal v_temp

  # Electrostatic relaxation
  fix swp swpFe atom/swap 1 1 ${rand} ${temp} ke no types 6 7
  fix swp swpFe atom/swap 1 1 805225 ${temp} ke no types 6 7
  fix swp swpFe atom/swap 1 1 805225 34 ke no types 6 7
  thermo 100
  thermo_style custom step v_ftemp pe f_swp[1] f_swp[2]
  run ${nsteps}
  run 972
WARNING: No fixes with time integration, atoms won't move (../verlet.cpp:60)
PPPM initialization ...
  using 12-bit tables for long-range coulomb (../kspace.cpp:340)
  G vector (1/distance) = 0.29499995
  grid = 45 45 250
  stencil order = 5
  estimated absolute RMS force accuracy = 0.00038527262
  estimated relative force accuracy = 1.160237e-06
  using double precision KISS FFT
  3d grid and FFT values/proc = 554040 378675
  generated 45 of 45 mixed pair_coeff terms from arithmetic mixing rule
Per MPI rank memory allocation (min/avg/max) = 24.35 | 35.11 | 63.71 Mbytes
Step v_ftemp PotEng f_swp[1] f_swp[2] 
   66096           34   -787013.83            0            0 
   66100           34   -787013.83            4            0 
   66200           34   -787013.83          104            0 
   66300           34   -787013.83          204            0 
   66400           34   -787013.83          304            0 
   66500           34   -787013.83          404            0 
   66600           34   -787013.83          504            0 
   66700           34   -787013.83          604            0 
   66800           34   -787013.83          704            0 
   66900           34   -787013.83          804            0 
   67000           34   -787013.83          904            0 
   67068           34   -787013.83          972            0 
Loop time of 269.313 on 4 procs for 972 steps with 4311 atoms

Performance: 0.156 ns/day, 153.928 hours/ns, 3.609 timesteps/s
94.0% CPU use with 4 MPI tasks x no OpenMP threads

MPI task timing breakdown:
Section |  min time  |  avg time  |  max time  |%varavg| %total
---------------------------------------------------------------
Pair    | 2.8341     | 7.4517     | 11.042     | 127.4 |  2.77
Bond    | 0.0017033  | 0.0032385  | 0.0073616  |   4.2 |  0.00
Kspace  | 63.668     | 67.265     | 71.884     |  42.5 | 24.98
Neigh   | 16.936     | 16.965     | 17.005     |   0.7 |  6.30
Comm    | 0.45378    | 0.50845    | 0.54306    |   5.2 |  0.19
Output  | 0.00022826 | 0.00063354 | 0.0016695  |   0.0 |  0.00
Modify  | 177.08     | 177.1      | 177.11     |   0.1 | 65.76
Other   |            | 0.02411    |            |       |  0.01

Nlocal:        1077.75 ave        1494 max         657 min
Histogram: 1 1 0 0 0 0 0 0 1 1
Nghost:        8908.25 ave       11934 max        5689 min
Histogram: 1 1 0 0 0 0 0 0 0 2
Neighs:         536710 ave      798273 max      198736 min
Histogram: 1 0 0 1 0 0 0 0 0 2

Total # of neighbors = 2146840
Ave neighs/atom = 497.99119
Ave special neighs/atom = 0.029227557
Neighbor list builds = 1944
Dangerous builds = 0

  unfix swp
  thermo_style custom step temp pe

next temp
jump SELF minimize_temp

  variable ftemp equal v_temp

  # Electrostatic relaxation
  fix swp swpFe atom/swap 1 1 ${rand} ${temp} ke no types 6 7
  fix swp swpFe atom/swap 1 1 5763377 ${temp} ke no types 6 7
  fix swp swpFe atom/swap 1 1 5763377 30 ke no types 6 7
  thermo 100
  thermo_style custom step v_ftemp pe f_swp[1] f_swp[2]
  run ${nsteps}
  run 972
WARNING: No fixes with time integration, atoms won't move (../verlet.cpp:60)
PPPM initialization ...
  using 12-bit tables for long-range coulomb (../kspace.cpp:340)
  G vector (1/distance) = 0.29499995
  grid = 45 45 250
  stencil order = 5
  estimated absolute RMS force accuracy = 0.00038527262
  estimated relative force accuracy = 1.160237e-06
  using double precision KISS FFT
  3d grid and FFT values/proc = 554040 378675
  generated 45 of 45 mixed pair_coeff terms from arithmetic mixing rule
Per MPI rank memory allocation (min/avg/max) = 24.35 | 35.11 | 63.71 Mbytes
Step v_ftemp PotEng f_swp[1] f_swp[2] 
   67068           30   -787013.83            0            0 
   67100           30   -787013.83           32            0 
   67200           30   -787013.83          132            0 
   67300           30   -787013.83          232            0 
   67400           30   -787013.83          332            0 
   67500           30   -787013.83          432            0 
   67600           30   -787013.83          532            0 
   67700           30   -787013.83          632            0 
   67800           30   -787013.83          732            0 
   67900           30   -787013.83          832            0 
   68000           30   -787013.83          932            0 
   68040           30   -787013.83          972            0 
Loop time of 264.861 on 4 procs for 972 steps with 4311 atoms

Performance: 0.159 ns/day, 151.384 hours/ns, 3.670 timesteps/s
94.3% CPU use with 4 MPI tasks x no OpenMP threads

MPI task timing breakdown:
Section |  min time  |  avg time  |  max time  |%varavg| %total
---------------------------------------------------------------
Pair    | 2.8591     | 7.4596     | 11.046     | 126.2 |  2.82
Bond    | 0.0014913  | 0.0034172  | 0.0081902  |   4.7 |  0.00
Kspace  | 62.439     | 66.033     | 70.632     |  42.4 | 24.93
Neigh   | 16.975     | 17.005     | 17.046     |   0.7 |  6.42
Comm    | 0.46021    | 0.51881    | 0.55523    |   5.4 |  0.20
Output  | 0.00022083 | 0.00055767 | 0.0014154  |   0.0 |  0.00
Modify  | 173.8      | 173.81     | 173.83     |   0.1 | 65.62
Other   |            | 0.02729    |            |       |  0.01

Nlocal:        1077.75 ave        1494 max         657 min
Histogram: 1 1 0 0 0 0 0 0 1 1
Nghost:        8908.25 ave       11934 max        5689 min
Histogram: 1 1 0 0 0 0 0 0 0 2
Neighs:         536710 ave      798273 max      198736 min
Histogram: 1 0 0 1 0 0 0 0 0 2

Total # of neighbors = 2146840
Ave neighs/atom = 497.99119
Ave special neighs/atom = 0.029227557
Neighbor list builds = 1944
Dangerous builds = 0

  unfix swp
  thermo_style custom step temp pe

next temp
jump SELF minimize_temp

  variable ftemp equal v_temp

  # Electrostatic relaxation
  fix swp swpFe atom/swap 1 1 ${rand} ${temp} ke no types 6 7
  fix swp swpFe atom/swap 1 1 9067551 ${temp} ke no types 6 7
  fix swp swpFe atom/swap 1 1 9067551 27 ke no types 6 7
  thermo 100
  thermo_style custom step v_ftemp pe f_swp[1] f_swp[2]
  run ${nsteps}
  run 972
WARNING: No fixes with time integration, atoms won't move (../verlet.cpp:60)
PPPM initialization ...
  using 12-bit tables for long-range coulomb (../kspace.cpp:340)
  G vector (1/distance) = 0.29499995
  grid = 45 45 250
  stencil order = 5
  estimated absolute RMS force accuracy = 0.00038527262
  estimated relative force accuracy = 1.160237e-06
  using double precision KISS FFT
  3d grid and FFT values/proc = 554040 378675
  generated 45 of 45 mixed pair_coeff terms from arithmetic mixing rule
Per MPI rank memory allocation (min/avg/max) = 24.35 | 35.11 | 63.71 Mbytes
Step v_ftemp PotEng f_swp[1] f_swp[2] 
   68040           27   -787013.83            0            0 
   68100           27   -787013.83           60            0 
   68200           27   -787013.83          160            0 
   68300           27   -787013.83          260            0 
   68400           27   -787013.83          360            0 
   68500           27   -787013.83          460            0 
   68600           27   -787013.83          560            0 
   68700           27   -787013.83          660            0 
   68800           27   -787013.83          760            0 
   68900           27   -787013.83          860            0 
   69000           27   -787013.83          960            0 
   69012           27   -787013.83          972            0 
Loop time of 270.787 on 4 procs for 972 steps with 4311 atoms

Performance: 0.155 ns/day, 154.771 hours/ns, 3.590 timesteps/s
94.0% CPU use with 4 MPI tasks x no OpenMP threads

MPI task timing breakdown:
Section |  min time  |  avg time  |  max time  |%varavg| %total
---------------------------------------------------------------
Pair    | 2.8459     | 7.4273     | 11.008     | 126.4 |  2.74
Bond    | 0.0013629  | 0.0032257  | 0.0077124  |   4.6 |  0.00
Kspace  | 64.828     | 68.412     | 72.994     |  41.7 | 25.26
Neigh   | 16.797     | 16.823     | 16.861     |   0.6 |  6.21
Comm    | 0.42901    | 0.47967    | 0.51183    |   5.0 |  0.18
Output  | 0.00025316 | 0.00057522 | 0.0013787  |   0.0 |  0.00
Modify  | 177.61     | 177.62     | 177.63     |   0.1 | 65.59
Other   |            | 0.02433    |            |       |  0.01

Nlocal:        1077.75 ave        1494 max         657 min
Histogram: 1 1 0 0 0 0 0 0 1 1
Nghost:        8908.25 ave       11934 max        5689 min
Histogram: 1 1 0 0 0 0 0 0 0 2
Neighs:         536710 ave      798273 max      198736 min
Histogram: 1 0 0 1 0 0 0 0 0 2

Total # of neighbors = 2146840
Ave neighs/atom = 497.99119
Ave special neighs/atom = 0.029227557
Neighbor list builds = 1944
Dangerous builds = 0

  unfix swp
  thermo_style custom step temp pe

next temp
jump SELF minimize_temp

  variable ftemp equal v_temp

  # Electrostatic relaxation
  fix swp swpFe atom/swap 1 1 ${rand} ${temp} ke no types 6 7
  fix swp swpFe atom/swap 1 1 8558588 ${temp} ke no types 6 7
  fix swp swpFe atom/swap 1 1 8558588 24 ke no types 6 7
  thermo 100
  thermo_style custom step v_ftemp pe f_swp[1] f_swp[2]
  run ${nsteps}
  run 972
WARNING: No fixes with time integration, atoms won't move (../verlet.cpp:60)
PPPM initialization ...
  using 12-bit tables for long-range coulomb (../kspace.cpp:340)
  G vector (1/distance) = 0.29499995
  grid = 45 45 250
  stencil order = 5
  estimated absolute RMS force accuracy = 0.00038527262
  estimated relative force accuracy = 1.160237e-06
  using double precision KISS FFT
  3d grid and FFT values/proc = 554040 378675
  generated 45 of 45 mixed pair_coeff terms from arithmetic mixing rule
Per MPI rank memory allocation (min/avg/max) = 24.35 | 35.11 | 63.71 Mbytes
Step v_ftemp PotEng f_swp[1] f_swp[2] 
   69012           24   -787013.83            0            0 
   69100           24   -787013.83           88            0 
   69200           24   -787013.83          188            0 
   69300           24   -787013.83          288            0 
   69400           24   -787013.83          388            0 
   69500           24   -787013.83          488            0 
   69600           24   -787013.83          588            0 
   69700           24   -787013.83          688            0 
   69800           24   -787013.83          788            0 
   69900           24   -787013.83          888            0 
   69984           24   -787013.83          972            0 
Loop time of 268.301 on 4 procs for 972 steps with 4311 atoms

Performance: 0.157 ns/day, 153.350 hours/ns, 3.623 timesteps/s
94.0% CPU use with 4 MPI tasks x no OpenMP threads

MPI task timing breakdown:
Section |  min time  |  avg time  |  max time  |%varavg| %total
---------------------------------------------------------------
Pair    | 2.8765     | 7.4858     | 11.018     | 126.3 |  2.79
Bond    | 0.0015529  | 0.0034558  | 0.0077857  |   4.3 |  0.00
Kspace  | 63.815     | 67.35      | 71.961     |  42.2 | 25.10
Neigh   | 16.858     | 16.885     | 16.924     |   0.7 |  6.29
Comm    | 0.42184    | 0.47791    | 0.51665    |   5.8 |  0.18
Output  | 0.00020222 | 0.00046112 | 0.0010908  |   0.0 |  0.00
Modify  | 176.06     | 176.07     | 176.09     |   0.1 | 65.62
Other   |            | 0.02577    |            |       |  0.01

Nlocal:        1077.75 ave        1494 max         657 min
Histogram: 1 1 0 0 0 0 0 0 1 1
Nghost:        8908.25 ave       11934 max        5689 min
Histogram: 1 1 0 0 0 0 0 0 0 2
Neighs:         536710 ave      798273 max      198736 min
Histogram: 1 0 0 1 0 0 0 0 0 2

Total # of neighbors = 2146840
Ave neighs/atom = 497.99119
Ave special neighs/atom = 0.029227557
Neighbor list builds = 1944
Dangerous builds = 0

  unfix swp
  thermo_style custom step temp pe

next temp
jump SELF minimize_temp

  variable ftemp equal v_temp

  # Electrostatic relaxation
  fix swp swpFe atom/swap 1 1 ${rand} ${temp} ke no types 6 7
  fix swp swpFe atom/swap 1 1 7745743 ${temp} ke no types 6 7
  fix swp swpFe atom/swap 1 1 7745743 21 ke no types 6 7
  thermo 100
  thermo_style custom step v_ftemp pe f_swp[1] f_swp[2]
  run ${nsteps}
  run 972
WARNING: No fixes with time integration, atoms won't move (../verlet.cpp:60)
PPPM initialization ...
  using 12-bit tables for long-range coulomb (../kspace.cpp:340)
  G vector (1/distance) = 0.29499995
  grid = 45 45 250
  stencil order = 5
  estimated absolute RMS force accuracy = 0.00038527262
  estimated relative force accuracy = 1.160237e-06
  using double precision KISS FFT
  3d grid and FFT values/proc = 554040 378675
  generated 45 of 45 mixed pair_coeff terms from arithmetic mixing rule
Per MPI rank memory allocation (min/avg/max) = 24.35 | 35.11 | 63.71 Mbytes
Step v_ftemp PotEng f_swp[1] f_swp[2] 
   69984           21   -787013.83            0            0 
   70000           21   -787013.83           16            0 
   70100           21   -787013.83          116            0 
   70200           21   -787013.83          216            0 
   70300           21   -787013.83          316            0 
   70400           21   -787013.83          416            0 
   70500           21   -787013.83          516            0 
   70600           21   -787013.83          616            0 
   70700           21   -787013.83          716            0 
   70800           21   -787013.83          816            0 
   70900           21   -787013.83          916            0 
   70956           21   -787013.83          972            0 
Loop time of 265.551 on 4 procs for 972 steps with 4311 atoms

Performance: 0.158 ns/day, 151.778 hours/ns, 3.660 timesteps/s
93.8% CPU use with 4 MPI tasks x no OpenMP threads

MPI task timing breakdown:
Section |  min time  |  avg time  |  max time  |%varavg| %total
---------------------------------------------------------------
Pair    | 2.894      | 7.4876     | 11.023     | 126.0 |  2.82
Bond    | 0.0014824  | 0.0033491  | 0.0082381  |   4.9 |  0.00
Kspace  | 61.443     | 64.981     | 69.578     |  42.8 | 24.47
Neigh   | 17.008     | 17.048     | 17.077     |   0.7 |  6.42
Comm    | 0.52817    | 0.56584    | 0.61354    |   4.4 |  0.21
Output  | 0.00023213 | 0.00055227 | 0.0013326  |   0.0 |  0.00
Modify  | 175.43     | 175.44     | 175.45     |   0.1 | 66.07
Other   |            | 0.02786    |            |       |  0.01

Nlocal:        1077.75 ave        1494 max         657 min
Histogram: 1 1 0 0 0 0 0 0 1 1
Nghost:        8908.25 ave       11934 max        5689 min
Histogram: 1 1 0 0 0 0 0 0 0 2
Neighs:         536710 ave      798273 max      198736 min
Histogram: 1 0 0 1 0 0 0 0 0 2

Total # of neighbors = 2146840
Ave neighs/atom = 497.99119
Ave special neighs/atom = 0.029227557
Neighbor list builds = 1944
Dangerous builds = 0

  unfix swp
  thermo_style custom step temp pe

next temp
jump SELF minimize_temp

  variable ftemp equal v_temp

  # Electrostatic relaxation
  fix swp swpFe atom/swap 1 1 ${rand} ${temp} ke no types 6 7
  fix swp swpFe atom/swap 1 1 303549 ${temp} ke no types 6 7
  fix swp swpFe atom/swap 1 1 303549 18 ke no types 6 7
  thermo 100
  thermo_style custom step v_ftemp pe f_swp[1] f_swp[2]
  run ${nsteps}
  run 972
WARNING: No fixes with time integration, atoms won't move (../verlet.cpp:60)
PPPM initialization ...
  using 12-bit tables for long-range coulomb (../kspace.cpp:340)
  G vector (1/distance) = 0.29499995
  grid = 45 45 250
  stencil order = 5
  estimated absolute RMS force accuracy = 0.00038527262
  estimated relative force accuracy = 1.160237e-06
  using double precision KISS FFT
  3d grid and FFT values/proc = 554040 378675
  generated 45 of 45 mixed pair_coeff terms from arithmetic mixing rule
Per MPI rank memory allocation (min/avg/max) = 24.35 | 35.11 | 63.71 Mbytes
Step v_ftemp PotEng f_swp[1] f_swp[2] 
   70956           18   -787013.83            0            0 
   71000           18   -787013.83           44            0 
   71100           18   -787013.83          144            0 
   71200           18   -787013.83          244            0 
   71300           18   -787013.83          344            0 
   71400           18   -787013.83          444            0 
   71500           18   -787013.83          544            0 
   71600           18   -787013.83          644            0 
   71700           18   -787013.83          744            0 
   71800           18   -787013.83          844            0 
   71900           18   -787013.83          944            0 
   71928           18   -787013.83          972            0 
Loop time of 268.306 on 4 procs for 972 steps with 4311 atoms

Performance: 0.157 ns/day, 153.353 hours/ns, 3.623 timesteps/s
94.1% CPU use with 4 MPI tasks x no OpenMP threads

MPI task timing breakdown:
Section |  min time  |  avg time  |  max time  |%varavg| %total
---------------------------------------------------------------
Pair    | 2.8234     | 7.3672     | 10.914     | 125.8 |  2.75
Bond    | 0.0014702  | 0.0030872  | 0.0073153  |   4.4 |  0.00
Kspace  | 64.107     | 67.646     | 72.187     |  41.5 | 25.21
Neigh   | 16.943     | 16.97      | 17.01      |   0.7 |  6.32
Comm    | 0.46245    | 0.52044    | 0.56461    |   5.2 |  0.19
Output  | 0.00023239 | 0.00052372 | 0.0012193  |   0.0 |  0.00
Modify  | 175.76     | 175.77     | 175.8      |   0.1 | 65.51
Other   |            | 0.02536    |            |       |  0.01

Nlocal:        1077.75 ave        1494 max         657 min
Histogram: 1 1 0 0 0 0 0 0 1 1
Nghost:        8908.25 ave       11934 max        5689 min
Histogram: 1 1 0 0 0 0 0 0 0 2
Neighs:         536710 ave      798273 max      198736 min
Histogram: 1 0 0 1 0 0 0 0 0 2

Total # of neighbors = 2146840
Ave neighs/atom = 497.99119
Ave special neighs/atom = 0.029227557
Neighbor list builds = 1944
Dangerous builds = 0

  unfix swp
  thermo_style custom step temp pe

next temp
jump SELF minimize_temp

  variable ftemp equal v_temp

  # Electrostatic relaxation
  fix swp swpFe atom/swap 1 1 ${rand} ${temp} ke no types 6 7
  fix swp swpFe atom/swap 1 1 2195032 ${temp} ke no types 6 7
  fix swp swpFe atom/swap 1 1 2195032 16 ke no types 6 7
  thermo 100
  thermo_style custom step v_ftemp pe f_swp[1] f_swp[2]
  run ${nsteps}
  run 972
WARNING: No fixes with time integration, atoms won't move (../verlet.cpp:60)
PPPM initialization ...
  using 12-bit tables for long-range coulomb (../kspace.cpp:340)
  G vector (1/distance) = 0.29499995
  grid = 45 45 250
  stencil order = 5
  estimated absolute RMS force accuracy = 0.00038527262
  estimated relative force accuracy = 1.160237e-06
  using double precision KISS FFT
  3d grid and FFT values/proc = 554040 378675
  generated 45 of 45 mixed pair_coeff terms from arithmetic mixing rule
Per MPI rank memory allocation (min/avg/max) = 24.35 | 35.11 | 63.71 Mbytes
Step v_ftemp PotEng f_swp[1] f_swp[2] 
   71928           16   -787013.83            0            0 
   72000           16   -787013.83           72            0 
   72100           16   -787013.83          172            0 
   72200           16   -787013.83          272            0 
   72300           16   -787013.83          372            0 
   72400           16   -787013.83          472            0 
   72500           16   -787013.83          572            0 
   72600           16   -787013.83          672            0 
   72700           16   -787013.83          772            0 
   72800           16   -787013.83          872            0 
   72900           16   -787013.83          972            0 
Loop time of 265.133 on 4 procs for 972 steps with 4311 atoms

Performance: 0.158 ns/day, 151.539 hours/ns, 3.666 timesteps/s
94.2% CPU use with 4 MPI tasks x no OpenMP threads

MPI task timing breakdown:
Section |  min time  |  avg time  |  max time  |%varavg| %total
---------------------------------------------------------------
Pair    | 2.9661     | 7.6377     | 11.343     | 127.5 |  2.88
Bond    | 0.0017365  | 0.003924   | 0.0093044  |   5.0 |  0.00
Kspace  | 62.421     | 66.131     | 70.803     |  43.4 | 24.94
Neigh   | 16.925     | 16.952     | 16.989     |   0.6 |  6.39
Comm    | 0.39898    | 0.44989    | 0.48073    |   5.0 |  0.17
Output  | 0.00020704 | 0.00050424 | 0.0012483  |   0.0 |  0.00
Modify  | 173.92     | 173.93     | 173.94     |   0.1 | 65.60
Other   |            | 0.02826    |            |       |  0.01

Nlocal:        1077.75 ave        1494 max         657 min
Histogram: 1 1 0 0 0 0 0 0 1 1
Nghost:        8908.25 ave       11934 max        5689 min
Histogram: 1 1 0 0 0 0 0 0 0 2
Neighs:         536710 ave      798273 max      198736 min
Histogram: 1 0 0 1 0 0 0 0 0 2

Total # of neighbors = 2146840
Ave neighs/atom = 497.99119
Ave special neighs/atom = 0.029227557
Neighbor list builds = 1944
Dangerous builds = 0

  unfix swp
  thermo_style custom step temp pe

next temp
jump SELF minimize_temp

  variable ftemp equal v_temp

  # Electrostatic relaxation
  fix swp swpFe atom/swap 1 1 ${rand} ${temp} ke no types 6 7
  fix swp swpFe atom/swap 1 1 3250684 ${temp} ke no types 6 7
  fix swp swpFe atom/swap 1 1 3250684 14 ke no types 6 7
  thermo 100
  thermo_style custom step v_ftemp pe f_swp[1] f_swp[2]
  run ${nsteps}
  run 972
WARNING: No fixes with time integration, atoms won't move (../verlet.cpp:60)
PPPM initialization ...
  using 12-bit tables for long-range coulomb (../kspace.cpp:340)
  G vector (1/distance) = 0.29499995
  grid = 45 45 250
  stencil order = 5
  estimated absolute RMS force accuracy = 0.00038527262
  estimated relative force accuracy = 1.160237e-06
  using double precision KISS FFT
  3d grid and FFT values/proc = 554040 378675
  generated 45 of 45 mixed pair_coeff terms from arithmetic mixing rule
Per MPI rank memory allocation (min/avg/max) = 24.35 | 35.11 | 63.71 Mbytes
Step v_ftemp PotEng f_swp[1] f_swp[2] 
   72900           14   -787013.83            0            0 
   73000           14   -787013.83          100            0 
   73100           14   -787013.83          200            0 
   73200           14   -787013.83          300            0 
   73300           14   -787013.83          400            0 
   73400           14   -787013.83          500            0 
   73500           14   -787013.83          600            0 
   73600           14   -787013.83          700            0 
   73700           14   -787013.83          800            0 
   73800           14   -787013.83          900            0 
   73872           14   -787013.83          972            0 
Loop time of 265.844 on 4 procs for 972 steps with 4311 atoms

Performance: 0.158 ns/day, 151.946 hours/ns, 3.656 timesteps/s
94.3% CPU use with 4 MPI tasks x no OpenMP threads

MPI task timing breakdown:
Section |  min time  |  avg time  |  max time  |%varavg| %total
---------------------------------------------------------------
Pair    | 2.8933     | 7.5391     | 11.101     | 126.9 |  2.84
Bond    | 0.0016526  | 0.0035443  | 0.0083974  |   4.7 |  0.00
Kspace  | 62.607     | 66.171     | 70.82      |  42.9 | 24.89
Neigh   | 16.849     | 16.875     | 16.912     |   0.6 |  6.35
Comm    | 0.43056    | 0.48035    | 0.51278    |   5.0 |  0.18
Output  | 0.00020105 | 0.00052348 | 0.0013415  |   0.0 |  0.00
Modify  | 174.74     | 174.75     | 174.76     |   0.1 | 65.73
Other   |            | 0.02717    |            |       |  0.01

Nlocal:        1077.75 ave        1494 max         657 min
Histogram: 1 1 0 0 0 0 0 0 1 1
Nghost:        8908.25 ave       11934 max        5689 min
Histogram: 1 1 0 0 0 0 0 0 0 2
Neighs:         536710 ave      798273 max      198736 min
Histogram: 1 0 0 1 0 0 0 0 0 2

Total # of neighbors = 2146840
Ave neighs/atom = 497.99119
Ave special neighs/atom = 0.029227557
Neighbor list builds = 1944
Dangerous builds = 0

  unfix swp
  thermo_style custom step temp pe

next temp
jump SELF minimize_temp

  variable ftemp equal v_temp

  # Electrostatic relaxation
  fix swp swpFe atom/swap 1 1 ${rand} ${temp} ke no types 6 7
  fix swp swpFe atom/swap 1 1 1810735 ${temp} ke no types 6 7
  fix swp swpFe atom/swap 1 1 1810735 12 ke no types 6 7
  thermo 100
  thermo_style custom step v_ftemp pe f_swp[1] f_swp[2]
  run ${nsteps}
  run 972
WARNING: No fixes with time integration, atoms won't move (../verlet.cpp:60)
PPPM initialization ...
  using 12-bit tables for long-range coulomb (../kspace.cpp:340)
  G vector (1/distance) = 0.29499995
  grid = 45 45 250
  stencil order = 5
  estimated absolute RMS force accuracy = 0.00038527262
  estimated relative force accuracy = 1.160237e-06
  using double precision KISS FFT
  3d grid and FFT values/proc = 554040 378675
  generated 45 of 45 mixed pair_coeff terms from arithmetic mixing rule
Per MPI rank memory allocation (min/avg/max) = 24.35 | 35.11 | 63.71 Mbytes
Step v_ftemp PotEng f_swp[1] f_swp[2] 
   73872           12   -787013.83            0            0 
   73900           12   -787013.83           28            0 
   74000           12   -787013.83          128            0 
   74100           12   -787013.83          228            0 
   74200           12   -787013.83          328            0 
   74300           12   -787013.83          428            0 
   74400           12   -787013.83          528            0 
   74500           12   -787013.83          628            0 
   74600           12   -787013.83          728            0 
   74700           12   -787013.83          828            0 
   74800           12   -787013.83          928            0 
   74844           12   -787013.83          972            0 
Loop time of 269.697 on 4 procs for 972 steps with 4311 atoms

Performance: 0.156 ns/day, 154.148 hours/ns, 3.604 timesteps/s
94.2% CPU use with 4 MPI tasks x no OpenMP threads

MPI task timing breakdown:
Section |  min time  |  avg time  |  max time  |%varavg| %total
---------------------------------------------------------------
Pair    | 2.8195     | 7.3865     | 10.912     | 125.8 |  2.74
Bond    | 0.0014628  | 0.0030369  | 0.0070675  |   4.2 |  0.00
Kspace  | 64.558     | 68.087     | 72.655     |  41.5 | 25.25
Neigh   | 16.776     | 16.807     | 16.845     |   0.7 |  6.23
Comm    | 0.45451    | 0.50743    | 0.54527    |   5.5 |  0.19
Output  | 0.00033814 | 0.00070967 | 0.0016488  |   0.0 |  0.00
Modify  | 176.87     | 176.88     | 176.9      |   0.1 | 65.59
Other   |            | 0.02451    |            |       |  0.01

Nlocal:        1077.75 ave        1494 max         657 min
Histogram: 1 1 0 0 0 0 0 0 1 1
Nghost:        8908.25 ave       11934 max        5689 min
Histogram: 1 1 0 0 0 0 0 0 0 2
Neighs:         536710 ave      798273 max      198736 min
Histogram: 1 0 0 1 0 0 0 0 0 2

Total # of neighbors = 2146840
Ave neighs/atom = 497.99119
Ave special neighs/atom = 0.029227557
Neighbor list builds = 1944
Dangerous builds = 0

  unfix swp
  thermo_style custom step temp pe

next temp
jump SELF minimize_temp

  variable ftemp equal v_temp

  # Electrostatic relaxation
  fix swp swpFe atom/swap 1 1 ${rand} ${temp} ke no types 6 7
  fix swp swpFe atom/swap 1 1 1251659 ${temp} ke no types 6 7
  fix swp swpFe atom/swap 1 1 1251659 10 ke no types 6 7
  thermo 100
  thermo_style custom step v_ftemp pe f_swp[1] f_swp[2]
  run ${nsteps}
  run 972
WARNING: No fixes with time integration, atoms won't move (../verlet.cpp:60)
PPPM initialization ...
  using 12-bit tables for long-range coulomb (../kspace.cpp:340)
  G vector (1/distance) = 0.29499995
  grid = 45 45 250
  stencil order = 5
  estimated absolute RMS force accuracy = 0.00038527262
  estimated relative force accuracy = 1.160237e-06
  using double precision KISS FFT
  3d grid and FFT values/proc = 554040 378675
  generated 45 of 45 mixed pair_coeff terms from arithmetic mixing rule
Per MPI rank memory allocation (min/avg/max) = 24.35 | 35.11 | 63.71 Mbytes
Step v_ftemp PotEng f_swp[1] f_swp[2] 
   74844           10   -787013.83            0            0 
   74900           10   -787013.83           56            0 
   75000           10   -787013.83          156            0 
   75100           10   -787013.83          256            0 
   75200           10   -787013.83          356            0 
   75300           10   -787013.83          456            0 
   75400           10   -787013.83          556            0 
   75500           10   -787013.83          656            0 
   75600           10   -787013.83          756            0 
   75700           10   -787013.83          856            0 
   75800           10   -787013.83          956            0 
   75816           10   -787013.83          972            0 
Loop time of 267.918 on 4 procs for 972 steps with 4311 atoms

Performance: 0.157 ns/day, 153.131 hours/ns, 3.628 timesteps/s
94.1% CPU use with 4 MPI tasks x no OpenMP threads

MPI task timing breakdown:
Section |  min time  |  avg time  |  max time  |%varavg| %total
---------------------------------------------------------------
Pair    | 2.8654     | 7.4254     | 10.968     | 125.6 |  2.77
Bond    | 0.0015635  | 0.0032387  | 0.0076332  |   4.5 |  0.00
Kspace  | 63.607     | 67.151     | 71.715     |  41.8 | 25.06
Neigh   | 16.845     | 16.872     | 16.911     |   0.7 |  6.30
Comm    | 0.43677    | 0.48557    | 0.52185    |   5.0 |  0.18
Output  | 0.00023999 | 0.00055128 | 0.001299   |   0.0 |  0.00
Modify  | 175.94     | 175.95     | 175.97     |   0.1 | 65.67
Other   |            | 0.02552    |            |       |  0.01

Nlocal:        1077.75 ave        1494 max         657 min
Histogram: 1 1 0 0 0 0 0 0 1 1
Nghost:        8908.25 ave       11934 max        5689 min
Histogram: 1 1 0 0 0 0 0 0 0 2
Neighs:         536710 ave      798273 max      198736 min
Histogram: 1 0 0 1 0 0 0 0 0 2

Total # of neighbors = 2146840
Ave neighs/atom = 497.99119
Ave special neighs/atom = 0.029227557
Neighbor list builds = 1944
Dangerous builds = 0

  unfix swp
  thermo_style custom step temp pe

next temp
jump SELF minimize_temp

  variable ftemp equal v_temp

  # Electrostatic relaxation
  fix swp swpFe atom/swap 1 1 ${rand} ${temp} ke no types 6 7
  fix swp swpFe atom/swap 1 1 1092138 ${temp} ke no types 6 7
  fix swp swpFe atom/swap 1 1 1092138 9 ke no types 6 7
  thermo 100
  thermo_style custom step v_ftemp pe f_swp[1] f_swp[2]
  run ${nsteps}
  run 972
WARNING: No fixes with time integration, atoms won't move (../verlet.cpp:60)
PPPM initialization ...
  using 12-bit tables for long-range coulomb (../kspace.cpp:340)
  G vector (1/distance) = 0.29499995
  grid = 45 45 250
  stencil order = 5
  estimated absolute RMS force accuracy = 0.00038527262
  estimated relative force accuracy = 1.160237e-06
  using double precision KISS FFT
  3d grid and FFT values/proc = 554040 378675
  generated 45 of 45 mixed pair_coeff terms from arithmetic mixing rule
Per MPI rank memory allocation (min/avg/max) = 24.35 | 35.11 | 63.71 Mbytes
Step v_ftemp PotEng f_swp[1] f_swp[2] 
   75816            9   -787013.83            0            0 
   75900            9   -787013.83           84            0 
   76000            9   -787013.83          184            0 
   76100            9   -787013.83          284            0 
   76200            9   -787013.83          384            0 
   76300            9   -787013.83          484            0 
   76400            9   -787013.83          584            0 
   76500            9   -787013.83          684            0 
   76600            9   -787013.83          784            0 
   76700            9   -787013.83          884            0 
   76788            9   -787013.83          972            0 
Loop time of 263.698 on 4 procs for 972 steps with 4311 atoms

Performance: 0.159 ns/day, 150.719 hours/ns, 3.686 timesteps/s
94.4% CPU use with 4 MPI tasks x no OpenMP threads

MPI task timing breakdown:
Section |  min time  |  avg time  |  max time  |%varavg| %total
---------------------------------------------------------------
Pair    | 2.8416     | 7.3858     | 10.917     | 125.6 |  2.80
Bond    | 0.0014299  | 0.0030258  | 0.0075954  |   4.8 |  0.00
Kspace  | 62.479     | 66.014     | 70.56      |  42.1 | 25.03
Neigh   | 17.012     | 17.041     | 17.084     |   0.7 |  6.46
Comm    | 0.45538    | 0.51269    | 0.54951    |   5.4 |  0.19
Output  | 0.00022978 | 0.00053665 | 0.0013026  |   0.0 |  0.00
Modify  | 172.7      | 172.71     | 172.73     |   0.1 | 65.50
Other   |            | 0.02641    |            |       |  0.01

Nlocal:        1077.75 ave        1494 max         657 min
Histogram: 1 1 0 0 0 0 0 0 1 1
Nghost:        8908.25 ave       11934 max        5689 min
Histogram: 1 1 0 0 0 0 0 0 0 2
Neighs:         536710 ave      798273 max      198736 min
Histogram: 1 0 0 1 0 0 0 0 0 2

Total # of neighbors = 2146840
Ave neighs/atom = 497.99119
Ave special neighs/atom = 0.029227557
Neighbor list builds = 1944
Dangerous builds = 0

  unfix swp
  thermo_style custom step temp pe

next temp
jump SELF minimize_temp

  variable ftemp equal v_temp

  # Electrostatic relaxation
  fix swp swpFe atom/swap 1 1 ${rand} ${temp} ke no types 6 7
  fix swp swpFe atom/swap 1 1 9182673 ${temp} ke no types 6 7
  fix swp swpFe atom/swap 1 1 9182673 8 ke no types 6 7
  thermo 100
  thermo_style custom step v_ftemp pe f_swp[1] f_swp[2]
  run ${nsteps}
  run 972
WARNING: No fixes with time integration, atoms won't move (../verlet.cpp:60)
PPPM initialization ...
  using 12-bit tables for long-range coulomb (../kspace.cpp:340)
  G vector (1/distance) = 0.29499995
  grid = 45 45 250
  stencil order = 5
  estimated absolute RMS force accuracy = 0.00038527262
  estimated relative force accuracy = 1.160237e-06
  using double precision KISS FFT
  3d grid and FFT values/proc = 554040 378675
  generated 45 of 45 mixed pair_coeff terms from arithmetic mixing rule
Per MPI rank memory allocation (min/avg/max) = 24.35 | 35.11 | 63.71 Mbytes
Step v_ftemp PotEng f_swp[1] f_swp[2] 
   76788            8   -787013.83            0            0 
   76800            8   -787013.83           12            0 
   76900            8   -787013.83          112            0 
   77000            8   -787013.83          212            0 
   77100            8   -787013.83          312            0 
   77200            8   -787013.83          412            0 
   77300            8   -787013.83          512            0 
   77400            8   -787013.83          612            0 
   77500            8   -787013.83          712            0 
   77600            8   -787013.83          812            0 
   77700            8   -787013.83          912            0 
   77760            8   -787013.83          972            0 
Loop time of 263.804 on 4 procs for 972 steps with 4311 atoms

Performance: 0.159 ns/day, 150.779 hours/ns, 3.685 timesteps/s
94.5% CPU use with 4 MPI tasks x no OpenMP threads

MPI task timing breakdown:
Section |  min time  |  avg time  |  max time  |%varavg| %total
---------------------------------------------------------------
Pair    | 2.8364     | 7.3612     | 10.884     | 125.1 |  2.79
Bond    | 0.0013452  | 0.0030358  | 0.0076339  |   4.8 |  0.00
Kspace  | 61.754     | 65.28      | 69.807     |  42.0 | 24.75
Neigh   | 17.085     | 17.114     | 17.156     |   0.7 |  6.49
Comm    | 0.48321    | 0.54163    | 0.57804    |   5.4 |  0.21
Output  | 0.00024321 | 0.00057408 | 0.0013691  |   0.0 |  0.00
Modify  | 173.46     | 173.48     | 173.49     |   0.1 | 65.76
Other   |            | 0.02708    |            |       |  0.01

Nlocal:        1077.75 ave        1494 max         657 min
Histogram: 1 1 0 0 0 0 0 0 1 1
Nghost:        8908.25 ave       11934 max        5689 min
Histogram: 1 1 0 0 0 0 0 0 0 2
Neighs:         536710 ave      798273 max      198736 min
Histogram: 1 0 0 1 0 0 0 0 0 2

Total # of neighbors = 2146840
Ave neighs/atom = 497.99119
Ave special neighs/atom = 0.029227557
Neighbor list builds = 1944
Dangerous builds = 0

  unfix swp
  thermo_style custom step temp pe

next temp
jump SELF minimize_temp

  variable ftemp equal v_temp

  # Electrostatic relaxation
  fix swp swpFe atom/swap 1 1 ${rand} ${temp} ke no types 6 7
  fix swp swpFe atom/swap 1 1 8523874 ${temp} ke no types 6 7
  fix swp swpFe atom/swap 1 1 8523874 7 ke no types 6 7
  thermo 100
  thermo_style custom step v_ftemp pe f_swp[1] f_swp[2]
  run ${nsteps}
  run 972
WARNING: No fixes with time integration, atoms won't move (../verlet.cpp:60)
PPPM initialization ...
  using 12-bit tables for long-range coulomb (../kspace.cpp:340)
  G vector (1/distance) = 0.29499995
  grid = 45 45 250
  stencil order = 5
  estimated absolute RMS force accuracy = 0.00038527262
  estimated relative force accuracy = 1.160237e-06
  using double precision KISS FFT
  3d grid and FFT values/proc = 554040 378675
  generated 45 of 45 mixed pair_coeff terms from arithmetic mixing rule
Per MPI rank memory allocation (min/avg/max) = 24.35 | 35.11 | 63.71 Mbytes
Step v_ftemp PotEng f_swp[1] f_swp[2] 
   77760            7   -787013.83            0            0 
   77800            7   -787013.83           40            0 
   77900            7   -787013.83          140            0 
   78000            7   -787013.83          240            0 
   78100            7   -787013.83          340            0 
   78200            7   -787013.83          440            0 
   78300            7   -787013.83          540            0 
   78400            7   -787013.83          640            0 
   78500            7   -787013.83          740            0 
   78600            7   -787013.83          840            0 
   78700            7   -787013.83          940            0 
   78732            7   -787013.83          972            0 
Loop time of 268.671 on 4 procs for 972 steps with 4311 atoms

Performance: 0.156 ns/day, 153.561 hours/ns, 3.618 timesteps/s
94.4% CPU use with 4 MPI tasks x no OpenMP threads

MPI task timing breakdown:
Section |  min time  |  avg time  |  max time  |%varavg| %total
---------------------------------------------------------------
Pair    | 2.8262     | 7.4132     | 11.059     | 127.0 |  2.76
Bond    | 0.0015057  | 0.0032514  | 0.007958   |   4.8 |  0.00
Kspace  | 63.963     | 67.613     | 72.201     |  42.1 | 25.17
Neigh   | 16.954     | 16.98      | 17.019     |   0.7 |  6.32
Comm    | 0.44858    | 0.50082    | 0.53488    |   5.1 |  0.19
Output  | 0.00029014 | 0.00061457 | 0.0013794  |   0.0 |  0.00
Modify  | 176.12     | 176.13     | 176.15     |   0.1 | 65.56
Other   |            | 0.02517    |            |       |  0.01

Nlocal:        1077.75 ave        1494 max         657 min
Histogram: 1 1 0 0 0 0 0 0 1 1
Nghost:        8908.25 ave       11934 max        5689 min
Histogram: 1 1 0 0 0 0 0 0 0 2
Neighs:         536710 ave      798273 max      198736 min
Histogram: 1 0 0 1 0 0 0 0 0 2

Total # of neighbors = 2146840
Ave neighs/atom = 497.99119
Ave special neighs/atom = 0.029227557
Neighbor list builds = 1944
Dangerous builds = 0

  unfix swp
  thermo_style custom step temp pe

next temp
jump SELF minimize_temp

  variable ftemp equal v_temp

  # Electrostatic relaxation
  fix swp swpFe atom/swap 1 1 ${rand} ${temp} ke no types 6 7
  fix swp swpFe atom/swap 1 1 7973751 ${temp} ke no types 6 7
  fix swp swpFe atom/swap 1 1 7973751 6 ke no types 6 7
  thermo 100
  thermo_style custom step v_ftemp pe f_swp[1] f_swp[2]
  run ${nsteps}
  run 972
WARNING: No fixes with time integration, atoms won't move (../verlet.cpp:60)
PPPM initialization ...
  using 12-bit tables for long-range coulomb (../kspace.cpp:340)
  G vector (1/distance) = 0.29499995
  grid = 45 45 250
  stencil order = 5
  estimated absolute RMS force accuracy = 0.00038527262
  estimated relative force accuracy = 1.160237e-06
  using double precision KISS FFT
  3d grid and FFT values/proc = 554040 378675
  generated 45 of 45 mixed pair_coeff terms from arithmetic mixing rule
Per MPI rank memory allocation (min/avg/max) = 24.35 | 35.11 | 63.71 Mbytes
Step v_ftemp PotEng f_swp[1] f_swp[2] 
   78732            6   -787013.83            0            0 
   78800            6   -787013.83           68            0 
   78900            6   -787013.83          168            0 
   79000            6   -787013.83          268            0 
   79100            6   -787013.83          368            0 
   79200            6   -787013.83          468            0 
   79300            6   -787013.83          568            0 
   79400            6   -787013.83          668            0 
   79500            6   -787013.83          768            0 
   79600            6   -787013.83          868            0 
   79700            6   -787013.83          968            0 
   79704            6   -787013.83          972            0 
Loop time of 272.136 on 4 procs for 972 steps with 4311 atoms

Performance: 0.154 ns/day, 155.542 hours/ns, 3.572 timesteps/s
94.0% CPU use with 4 MPI tasks x no OpenMP threads

MPI task timing breakdown:
Section |  min time  |  avg time  |  max time  |%varavg| %total
---------------------------------------------------------------
Pair    | 2.8006     | 7.3082     | 10.801     | 125.3 |  2.69
Bond    | 0.0013878  | 0.002897   | 0.0068514  |   4.3 |  0.00
Kspace  | 65.418     | 68.914     | 73.423     |  40.8 | 25.32
Neigh   | 16.718     | 16.746     | 16.788     |   0.7 |  6.15
Comm    | 0.44262    | 0.49949    | 0.53587    |   5.4 |  0.18
Output  | 0.00022316 | 0.00056814 | 0.0014337  |   0.0 |  0.00
Modify  | 178.63     | 178.64     | 178.66     |   0.1 | 65.64
Other   |            | 0.02399    |            |       |  0.01

Nlocal:        1077.75 ave        1494 max         657 min
Histogram: 1 1 0 0 0 0 0 0 1 1
Nghost:        8908.25 ave       11934 max        5689 min
Histogram: 1 1 0 0 0 0 0 0 0 2
Neighs:         536710 ave      798273 max      198736 min
Histogram: 1 0 0 1 0 0 0 0 0 2

Total # of neighbors = 2146840
Ave neighs/atom = 497.99119
Ave special neighs/atom = 0.029227557
Neighbor list builds = 1944
Dangerous builds = 0

  unfix swp
  thermo_style custom step temp pe

next temp
jump SELF minimize_temp

  variable ftemp equal v_temp

  # Electrostatic relaxation
  fix swp swpFe atom/swap 1 1 ${rand} ${temp} ke no types 6 7
  fix swp swpFe atom/swap 1 1 8822405 ${temp} ke no types 6 7
  fix swp swpFe atom/swap 1 1 8822405 5 ke no types 6 7
  thermo 100
  thermo_style custom step v_ftemp pe f_swp[1] f_swp[2]
  run ${nsteps}
  run 972
WARNING: No fixes with time integration, atoms won't move (../verlet.cpp:60)
PPPM initialization ...
  using 12-bit tables for long-range coulomb (../kspace.cpp:340)
  G vector (1/distance) = 0.29499995
  grid = 45 45 250
  stencil order = 5
  estimated absolute RMS force accuracy = 0.00038527262
  estimated relative force accuracy = 1.160237e-06
  using double precision KISS FFT
  3d grid and FFT values/proc = 554040 378675
  generated 45 of 45 mixed pair_coeff terms from arithmetic mixing rule
Per MPI rank memory allocation (min/avg/max) = 24.35 | 35.11 | 63.71 Mbytes
Step v_ftemp PotEng f_swp[1] f_swp[2] 
   79704            5   -787013.83            0            0 
   79800            5   -787013.83           96            0 
   79900            5   -787013.83          196            0 
   80000            5   -787013.83          296            0 
   80100            5   -787013.83          396            0 
   80200            5   -787013.83          496            0 
   80300            5   -787013.83          596            0 
   80400            5   -787013.83          696            0 
   80500            5   -787013.83          796            0 
   80600            5   -787013.83          896            0 
   80676            5   -787013.83          972            0 
Loop time of 269.635 on 4 procs for 972 steps with 4311 atoms

Performance: 0.156 ns/day, 154.112 hours/ns, 3.605 timesteps/s
94.1% CPU use with 4 MPI tasks x no OpenMP threads

MPI task timing breakdown:
Section |  min time  |  avg time  |  max time  |%varavg| %total
---------------------------------------------------------------
Pair    | 2.8118     | 7.3211     | 10.875     | 125.2 |  2.72
Bond    | 0.0013207  | 0.0028608  | 0.0072021  |   4.7 |  0.00
Kspace  | 64.038     | 67.596     | 72.105     |  41.2 | 25.07
Neigh   | 16.965     | 16.993     | 17.033     |   0.7 |  6.30
Comm    | 0.47685    | 0.53313    | 0.57038    |   5.3 |  0.20
Output  | 0.00022766 | 0.00051306 | 0.001211   |   0.0 |  0.00
Modify  | 177.15     | 177.16     | 177.18     |   0.1 | 65.70
Other   |            | 0.02498    |            |       |  0.01

Nlocal:        1077.75 ave        1494 max         657 min
Histogram: 1 1 0 0 0 0 0 0 1 1
Nghost:        8908.25 ave       11934 max        5689 min
Histogram: 1 1 0 0 0 0 0 0 0 2
Neighs:         536710 ave      798273 max      198736 min
Histogram: 1 0 0 1 0 0 0 0 0 2

Total # of neighbors = 2146840
Ave neighs/atom = 497.99119
Ave special neighs/atom = 0.029227557
Neighbor list builds = 1944
Dangerous builds = 0

  unfix swp
  thermo_style custom step temp pe

next temp
jump SELF minimize_temp

  variable ftemp equal v_temp

  # Electrostatic relaxation
  fix swp swpFe atom/swap 1 1 ${rand} ${temp} ke no types 6 7
  fix swp swpFe atom/swap 1 1 1866513 ${temp} ke no types 6 7
  fix swp swpFe atom/swap 1 1 1866513 4 ke no types 6 7
  thermo 100
  thermo_style custom step v_ftemp pe f_swp[1] f_swp[2]
  run ${nsteps}
  run 972
WARNING: No fixes with time integration, atoms won't move (../verlet.cpp:60)
PPPM initialization ...
  using 12-bit tables for long-range coulomb (../kspace.cpp:340)
  G vector (1/distance) = 0.29499995
  grid = 45 45 250
  stencil order = 5
  estimated absolute RMS force accuracy = 0.00038527262
  estimated relative force accuracy = 1.160237e-06
  using double precision KISS FFT
  3d grid and FFT values/proc = 554040 378675
  generated 45 of 45 mixed pair_coeff terms from arithmetic mixing rule
Per MPI rank memory allocation (min/avg/max) = 24.35 | 35.11 | 63.71 Mbytes
Step v_ftemp PotEng f_swp[1] f_swp[2] 
   80676            4   -787013.83            0            0 
   80700            4   -787013.83           24            0 
   80800            4   -787013.83          124            0 
   80900            4   -787013.83          224            0 
   81000            4   -787013.83          324            0 
   81100            4   -787013.83          424            0 
   81200            4   -787013.83          524            0 
   81300            4   -787013.83          624            0 
   81400            4   -787013.83          724            0 
   81500            4   -787013.83          824            0 
   81600            4   -787013.83          924            0 
   81648            4   -787013.83          972            0 
Loop time of 269.806 on 4 procs for 972 steps with 4311 atoms

Performance: 0.156 ns/day, 154.210 hours/ns, 3.603 timesteps/s
94.1% CPU use with 4 MPI tasks x no OpenMP threads

MPI task timing breakdown:
Section |  min time  |  avg time  |  max time  |%varavg| %total
---------------------------------------------------------------
Pair    | 2.8368     | 7.3753     | 10.895     | 126.3 |  2.73
Bond    | 0.0012069  | 0.0030268  | 0.0073876  |   4.6 |  0.00
Kspace  | 64.621     | 68.144     | 72.683     |  41.6 | 25.26
Neigh   | 16.783     | 16.81      | 16.848     |   0.6 |  6.23
Comm    | 0.44425    | 0.49571    | 0.52891    |   5.0 |  0.18
Output  | 0.00024722 | 0.00057803 | 0.0013775  |   0.0 |  0.00
Modify  | 176.94     | 176.95     | 176.97     |   0.1 | 65.59
Other   |            | 0.02392    |            |       |  0.01

Nlocal:        1077.75 ave        1494 max         657 min
Histogram: 1 1 0 0 0 0 0 0 1 1
Nghost:        8908.25 ave       11934 max        5689 min
Histogram: 1 1 0 0 0 0 0 0 0 2
Neighs:         536710 ave      798273 max      198736 min
Histogram: 1 0 0 1 0 0 0 0 0 2

Total # of neighbors = 2146840
Ave neighs/atom = 497.99119
Ave special neighs/atom = 0.029227557
Neighbor list builds = 1944
Dangerous builds = 0

  unfix swp
  thermo_style custom step temp pe

next temp
jump SELF minimize_temp

  variable ftemp equal v_temp

  # Electrostatic relaxation
  fix swp swpFe atom/swap 1 1 ${rand} ${temp} ke no types 6 7
  fix swp swpFe atom/swap 1 1 2979469 ${temp} ke no types 6 7
  fix swp swpFe atom/swap 1 1 2979469 3 ke no types 6 7
  thermo 100
  thermo_style custom step v_ftemp pe f_swp[1] f_swp[2]
  run ${nsteps}
  run 972
WARNING: No fixes with time integration, atoms won't move (../verlet.cpp:60)
PPPM initialization ...
  using 12-bit tables for long-range coulomb (../kspace.cpp:340)
  G vector (1/distance) = 0.29499995
  grid = 45 45 250
  stencil order = 5
  estimated absolute RMS force accuracy = 0.00038527262
  estimated relative force accuracy = 1.160237e-06
  using double precision KISS FFT
  3d grid and FFT values/proc = 554040 378675
  generated 45 of 45 mixed pair_coeff terms from arithmetic mixing rule
Per MPI rank memory allocation (min/avg/max) = 24.35 | 35.11 | 63.71 Mbytes
Step v_ftemp PotEng f_swp[1] f_swp[2] 
   81648            3   -787013.83            0            0 
   81700            3   -787013.83           52            0 
   81800            3   -787013.83          152            0 
   81900            3   -787013.83          252            0 
   82000            3   -787013.83          352            0 
   82100            3   -787013.83          452            0 
   82200            3   -787013.83          552            0 
   82300            3   -787013.83          652            0 
   82400            3   -787013.83          752            0 
   82500            3   -787013.83          852            0 
   82600            3   -787013.83          952            0 
   82620            3   -787013.83          972            0 
Loop time of 266.933 on 4 procs for 972 steps with 4311 atoms

Performance: 0.157 ns/day, 152.568 hours/ns, 3.641 timesteps/s
94.2% CPU use with 4 MPI tasks x no OpenMP threads

MPI task timing breakdown:
Section |  min time  |  avg time  |  max time  |%varavg| %total
---------------------------------------------------------------
Pair    | 2.8515     | 7.3706     | 10.884     | 125.0 |  2.76
Bond    | 0.0012974  | 0.002954   | 0.0073922  |   4.7 |  0.00
Kspace  | 62.532     | 66.052     | 70.57      |  41.8 | 24.74
Neigh   | 16.871     | 16.899     | 16.94      |   0.7 |  6.33
Comm    | 0.46584    | 0.52461    | 0.56355    |   5.5 |  0.20
Output  | 0.00025365 | 0.00060002 | 0.0014542  |   0.0 |  0.00
Modify  | 176.04     | 176.06     | 176.07     |   0.1 | 65.96
Other   |            | 0.02657    |            |       |  0.01

Nlocal:        1077.75 ave        1494 max         657 min
Histogram: 1 1 0 0 0 0 0 0 1 1
Nghost:        8908.25 ave       11934 max        5689 min
Histogram: 1 1 0 0 0 0 0 0 0 2
Neighs:         536710 ave      798273 max      198736 min
Histogram: 1 0 0 1 0 0 0 0 0 2

Total # of neighbors = 2146840
Ave neighs/atom = 497.99119
Ave special neighs/atom = 0.029227557
Neighbor list builds = 1944
Dangerous builds = 0

  unfix swp
  thermo_style custom step temp pe

next temp
jump SELF minimize_temp

  variable ftemp equal v_temp

  # Electrostatic relaxation
  fix swp swpFe atom/swap 1 1 ${rand} ${temp} ke no types 6 7
  fix swp swpFe atom/swap 1 1 7974133 ${temp} ke no types 6 7
  fix swp swpFe atom/swap 1 1 7974133 2 ke no types 6 7
  thermo 100
  thermo_style custom step v_ftemp pe f_swp[1] f_swp[2]
  run ${nsteps}
  run 972
WARNING: No fixes with time integration, atoms won't move (../verlet.cpp:60)
PPPM initialization ...
  using 12-bit tables for long-range coulomb (../kspace.cpp:340)
  G vector (1/distance) = 0.29499995
  grid = 45 45 250
  stencil order = 5
  estimated absolute RMS force accuracy = 0.00038527262
  estimated relative force accuracy = 1.160237e-06
  using double precision KISS FFT
  3d grid and FFT values/proc = 554040 378675
  generated 45 of 45 mixed pair_coeff terms from arithmetic mixing rule
Per MPI rank memory allocation (min/avg/max) = 24.35 | 35.11 | 63.71 Mbytes
Step v_ftemp PotEng f_swp[1] f_swp[2] 
   82620            2   -787013.83            0            0 
   82700            2   -787013.83           80            0 
   82800            2   -787013.83          180            0 
   82900            2   -787013.83          280            0 
   83000            2   -787013.83          380            0 
   83100            2   -787013.83          480            0 
   83200            2   -787013.83          580            0 
   83300            2   -787013.83          680            0 
   83400            2   -787013.83          780            0 
   83500            2   -787013.83          880            0 
   83592            2   -787013.83          972            0 
Loop time of 268.216 on 4 procs for 972 steps with 4311 atoms

Performance: 0.157 ns/day, 153.301 hours/ns, 3.624 timesteps/s
94.1% CPU use with 4 MPI tasks x no OpenMP threads

MPI task timing breakdown:
Section |  min time  |  avg time  |  max time  |%varavg| %total
---------------------------------------------------------------
Pair    | 2.8414     | 7.4297     | 11.044     | 126.5 |  2.77
Bond    | 0.0015813  | 0.003167   | 0.0075834  |   4.5 |  0.00
Kspace  | 63.956     | 67.577     | 72.167     |  42.0 | 25.20
Neigh   | 16.829     | 16.856     | 16.891     |   0.6 |  6.28
Comm    | 0.45178    | 0.49874    | 0.53589    |   4.8 |  0.19
Output  | 0.00020713 | 0.00056534 | 0.0014618  |   0.0 |  0.00
Modify  | 175.81     | 175.82     | 175.84     |   0.1 | 65.55
Other   |            | 0.02562    |            |       |  0.01

Nlocal:        1077.75 ave        1494 max         657 min
Histogram: 1 1 0 0 0 0 0 0 1 1
Nghost:        8908.25 ave       11934 max        5689 min
Histogram: 1 1 0 0 0 0 0 0 0 2
Neighs:         536710 ave      798273 max      198736 min
Histogram: 1 0 0 1 0 0 0 0 0 2

Total # of neighbors = 2146840
Ave neighs/atom = 497.99119
Ave special neighs/atom = 0.029227557
Neighbor list builds = 1944
Dangerous builds = 0

  unfix swp
  thermo_style custom step temp pe

next temp
jump SELF minimize_temp

  variable ftemp equal v_temp

  # Electrostatic relaxation
  fix swp swpFe atom/swap 1 1 ${rand} ${temp} ke no types 6 7
  fix swp swpFe atom/swap 1 1 9540448 ${temp} ke no types 6 7
  fix swp swpFe atom/swap 1 1 9540448 1 ke no types 6 7
  thermo 100
  thermo_style custom step v_ftemp pe f_swp[1] f_swp[2]
  run ${nsteps}
  run 972
WARNING: No fixes with time integration, atoms won't move (../verlet.cpp:60)
PPPM initialization ...
  using 12-bit tables for long-range coulomb (../kspace.cpp:340)
  G vector (1/distance) = 0.29499995
  grid = 45 45 250
  stencil order = 5
  estimated absolute RMS force accuracy = 0.00038527262
  estimated relative force accuracy = 1.160237e-06
  using double precision KISS FFT
  3d grid and FFT values/proc = 554040 378675
  generated 45 of 45 mixed pair_coeff terms from arithmetic mixing rule
Per MPI rank memory allocation (min/avg/max) = 24.35 | 35.11 | 63.71 Mbytes
Step v_ftemp PotEng f_swp[1] f_swp[2] 
   83592            1   -787013.83            0            0 
   83600            1   -787013.83            8            0 
   83700            1   -787013.83          108            0 
   83800            1   -787013.83          208            0 
   83900            1   -787013.83          308            0 
   84000            1   -787013.83          408            0 
   84100            1   -787013.83          508            0 
   84200            1   -787013.83          608            0 
   84300            1   -787013.83          708            0 
   84400            1   -787013.83          808            0 
   84500            1   -787013.83          908            0 
   84564            1   -787013.83          972            0 
Loop time of 267.248 on 4 procs for 972 steps with 4311 atoms

Performance: 0.157 ns/day, 152.748 hours/ns, 3.637 timesteps/s
94.2% CPU use with 4 MPI tasks x no OpenMP threads

MPI task timing breakdown:
Section |  min time  |  avg time  |  max time  |%varavg| %total
---------------------------------------------------------------
Pair    | 2.8461     | 7.431      | 11.022     | 126.4 |  2.78
Bond    | 0.0014368  | 0.0032397  | 0.0081849  |   5.0 |  0.00
Kspace  | 64.076     | 67.671     | 72.255     |  41.9 | 25.32
Neigh   | 16.778     | 16.804     | 16.841     |   0.6 |  6.29
Comm    | 0.43559    | 0.48587    | 0.51815    |   4.9 |  0.18
Output  | 0.00031322 | 0.00073015 | 0.0017653  |   0.0 |  0.00
Modify  | 174.82     | 174.83     | 174.84     |   0.1 | 65.42
Other   |            | 0.02468    |            |       |  0.01

Nlocal:        1077.75 ave        1494 max         657 min
Histogram: 1 1 0 0 0 0 0 0 1 1
Nghost:        8908.25 ave       11934 max        5689 min
Histogram: 1 1 0 0 0 0 0 0 0 2
Neighs:         536710 ave      798273 max      198736 min
Histogram: 1 0 0 1 0 0 0 0 0 2

Total # of neighbors = 2146840
Ave neighs/atom = 497.99119
Ave special neighs/atom = 0.029227557
Neighbor list builds = 1944
Dangerous builds = 0

  unfix swp
  thermo_style custom step temp pe

next temp
jump SELF minimize_temp

write_data 001-dbt_3x3_${layer}L_${type}_lqeq.data
write_data 001-dbt_3x3_21L_${type}_lqeq.data
write_data 001-dbt_3x3_21L_fa_tet_half_qeq_lqeq.data
System init for write_data ...
PPPM initialization ...
  using 12-bit tables for long-range coulomb (../kspace.cpp:340)
  G vector (1/distance) = 0.29499995
  grid = 45 45 250
  stencil order = 5
  estimated absolute RMS force accuracy = 0.00038527262
  estimated relative force accuracy = 1.160237e-06
  using double precision KISS FFT
  3d grid and FFT values/proc = 554040 378675
  generated 45 of 45 mixed pair_coeff terms from arithmetic mixing rule

# Full minimization
minimize 1.0e-6 1.0e-9 1000 10000
PPPM initialization ...
  using 12-bit tables for long-range coulomb (../kspace.cpp:340)
  G vector (1/distance) = 0.29499995
  grid = 45 45 250
  stencil order = 5
  estimated absolute RMS force accuracy = 0.00038527262
  estimated relative force accuracy = 1.160237e-06
  using double precision KISS FFT
  3d grid and FFT values/proc = 554040 378675
  generated 45 of 45 mixed pair_coeff terms from arithmetic mixing rule
Per MPI rank memory allocation (min/avg/max) = 25.48 | 36.23 | 64.84 Mbytes
Step Temp PotEng 
   84564            0   -787013.83 
   84600            0   -806296.28 
   84700            0   -807026.35 
   84800            0   -807362.94 
   84900            0   -807646.65 
   85000            0   -807908.33 
   85017            0   -807945.95 
Loop time of 69.1682 on 4 procs for 453 steps with 4311 atoms

93.8% CPU use with 4 MPI tasks x no OpenMP threads

Minimization stats:
  Stopping criterion = energy tolerance
  Energy initial, next-to-last, final = 
     -787013.831423578  -807945.169498906  -807945.954671813
  Force two-norm initial, final = 5318.5995 32.855461
  Force max component initial, final = 174.32488 5.2142715
  Final line search alpha, max atom move = 0.0028126093 0.014665708
  Iterations, force evaluations = 453 882

MPI task timing breakdown:
Section |  min time  |  avg time  |  max time  |%varavg| %total
---------------------------------------------------------------
Pair    | 4.1269     | 10.287     | 14.776     | 139.2 | 14.87
Bond    | 0.0016361  | 0.0043681  | 0.011047   |   5.9 |  0.01
Kspace  | 53.827     | 58.318     | 64.477     |  58.5 | 84.31
Neigh   | 0.29788    | 0.29838    | 0.2991     |   0.1 |  0.43
Comm    | 0.18385    | 0.1972     | 0.20817    |   2.2 |  0.29
Output  | 0.00012476 | 0.00025062 | 0.00062736 |   0.0 |  0.00
Modify  | 0          | 0          | 0          |   0.0 |  0.00
Other   |            | 0.06231    |            |       |  0.09

Nlocal:        1077.75 ave        1467 max         657 min
Histogram: 1 1 0 0 0 0 0 0 0 2
Nghost:        8922.25 ave       11954 max        5696 min
Histogram: 1 1 0 0 0 0 0 0 0 2
Neighs:         530032 ave      761745 max      198416 min
Histogram: 1 0 0 1 0 0 0 0 0 2

Total # of neighbors = 2120130
Ave neighs/atom = 491.79541
Ave special neighs/atom = 0.029227557
Neighbor list builds = 17
Dangerous builds = 0

write_data 001-dbt_3x3_${layer}L_${type}_lqeq_min.data
write_data 001-dbt_3x3_21L_${type}_lqeq_min.data
write_data 001-dbt_3x3_21L_fa_tet_half_qeq_lqeq_min.data
System init for write_data ...
PPPM initialization ...
  using 12-bit tables for long-range coulomb (../kspace.cpp:340)
  G vector (1/distance) = 0.29499995
  grid = 45 45 250
  stencil order = 5
  estimated absolute RMS force accuracy = 0.00038527262
  estimated relative force accuracy = 1.160237e-06
  using double precision KISS FFT
  3d grid and FFT values/proc = 554040 378675
  generated 45 of 45 mixed pair_coeff terms from arithmetic mixing rule
Total wall time: 6:28:53
